
     Program PWSCF v.7.5 starts on 16Jun2026 at 19:38: 5 

     This program is part of the open-source Quantum ESPRESSO suite
     for quantum simulation of materials; please cite
         "P. Giannozzi et al., J. Phys.:Condens. Matter 21 395502 (2009);
         "P. Giannozzi et al., J. Phys.:Condens. Matter 29 465901 (2017);
         "P. Giannozzi et al., J. Chem. Phys. 152 154105 (2020);
          URL http://www.quantum-espresso.org", 
     in publications or presentations arising from this work. More details at
     http://www.quantum-espresso.org/quote

     Parallel version (MPI), running on    64 processors

     MPI processes distributed on     1 nodes
     492108 MiB available memory on the printing compute node when the environment starts

     Waiting for input...
     Reading input from standard input

     Current dimensions of program PWSCF are:
     Max number of different atomic species (ntypx) = 10
     Max number of k-points (npk) =  40000
     Max angular momentum in pseudopotentials (lmaxx) =  4
     file O.pbe-n-kjpaw_psl.0.1.UPF: wavefunction(s)  2P renormalized
     file Cu.paw.z_11.ld1.psl.v1.0.0-low.upf: wavefunction(s)  4S 3D renormalized
     file Cu.paw.z_11.ld1.psl.v1.0.0-low.upf: wavefunction(s)  4S 3D renormalized
     Found identity + ( -0.5000 -0.5000  0.0000) symmetry
     This is a supercell, fractional translations are disabled
     Message from routine setup:
     using ibrav=0 with symmetry is DISCOURAGED, use correct ibrav instead
     [opt_tetra]  Optimized tetrahedron method is used.

     K-points division:     npool     =      16
     R & G space division:  proc/nbgrp/npool/nimage =       4
     Subspace diagonalization in iterative solution of the eigenvalue problem:
     a serial algorithm will be used


     Parallelization info
     --------------------
     sticks:   dense  smooth     PW     G-vecs:    dense   smooth      PW
     Min        3009    1500    422               102614    36274    5425
     Max        3012    1502    424               102615    36275    5426
     Sum       12041    6005   1693               410459   145097   21703

     Using Slab Decomposition



     bravais-lattice index     =            0
     lattice parameter (alat)  =      14.5040  a.u.
     unit-cell volume          =    1258.0888 (a.u.)^3
     number of atoms/cell      =           16
     number of atomic types    =            4
     number of electrons       =       132.00
     number of Kohn-Sham states=           79
     kinetic-energy cutoff     =      90.0000  Ry
     charge density cutoff     =     720.0000  Ry
     scf convergence threshold =      1.0E-08
     mixing beta               =       0.3000
     number of iterations used =            8  plain     mixing
     Exchange-correlation= SLA  PW   PBX  PBC
                           (   1   4   3   4   0   0   0)
     Hubbard projectors: ortho-atomic
     Hubbard parameters of DFT+U (Dudarev formulation) in eV:
     U(Cu1-3d) =  3.2000
     U(Cu2-3d) =  3.2000

     Internal variables: lda_plus_u =T, lda_plus_u_kind = 0

     Internal variables: orbital_resolved =F, hub_pot_fix =F, apply_U = F

     celldm(1)=  14.504017  celldm(2)=   0.000000  celldm(3)=   0.000000
     celldm(4)=   0.000000  celldm(5)=   0.000000  celldm(6)=   0.000000

     crystal axes: (cart. coord. in units of alat)
               a(1) = (   1.000000   0.000000   0.000000 )  
               a(2) = (  -0.000000   1.000000   0.000000 )  
               a(3) = (   0.000000   0.000000   0.412331 )  

     reciprocal axes: (cart. coord. in units 2 pi/alat)
               b(1) = (  1.000000  0.000000 -0.000000 )  
               b(2) = (  0.000000  1.000000  0.000000 )  
               b(3) = (  0.000000 -0.000000  2.425234 )  


     PseudoPot. # 1 for O  read from file:
     /home1/theory/dkorotin/pseudo/SSSP/PBE_precision/O.pbe-n-kjpaw_psl.0.1.UPF
     MD5 check sum: 0234752ac141de4415c5fc33072bef88
     Pseudo is Projector augmented-wave + core cor, Zval =  6.0
     Generated using "atomic" code by A. Dal Corso  v.5.0.99 svn rev. 10869
     Shape of augmentation charge: BESSEL
     Using radial grid of 1095 points,  4 beta functions with: 
                l(1) =   0
                l(2) =   0
                l(3) =   1
                l(4) =   1
     Q(r) pseudized with 0 coefficients 


     PseudoPot. # 2 for Ca read from file:
     /home1/theory/dkorotin/pseudo/SSSP/PBE_precision/Ca_pbe_v1.uspp.F.UPF
     MD5 check sum: 403a4c14b9e4d4dfdc3024c9a3812218
     Pseudo is Ultrasoft + core correction, Zval = 10.0
     Generated by new atomic code, or converted to UPF format
     Using radial grid of  845 points,  6 beta functions with: 
                l(1) =   0
                l(2) =   0
                l(3) =   1
                l(4) =   1
                l(5) =   2
                l(6) =   2
     Q(r) pseudized with  8 coefficients,  rinner =    1.500   1.500   1.500
                                                       1.500   1.500

     PseudoPot. # 3 for Cu read from file:
     /home1/theory/dkorotin/pseudo/SSSP/PBE_precision/Cu.paw.z_11.ld1.psl.v1.0.0-low.upf
     MD5 check sum: 619f40885d92a09a85a8b37550532d0c
     Pseudo is Projector augmented-wave + core cor, Zval = 11.0
     Generated using &quot;atomic&quot; code by A. Dal Corso  v.6.3MaX
     Shape of augmentation charge: PSQ
     Using radial grid of 1199 points,  6 beta functions with: 
                l(1) =   0
                l(2) =   0
                l(3) =   1
                l(4) =   1
                l(5) =   2
                l(6) =   2
     Q(r) pseudized with 0 coefficients 


     PseudoPot. # 4 for Cu read from file:
     /home1/theory/dkorotin/pseudo/SSSP/PBE_precision/Cu.paw.z_11.ld1.psl.v1.0.0-low.upf
     MD5 check sum: 619f40885d92a09a85a8b37550532d0c
     Pseudo is Projector augmented-wave + core cor, Zval = 11.0
     Generated using &quot;atomic&quot; code by A. Dal Corso  v.6.3MaX
     Shape of augmentation charge: PSQ
     Using radial grid of 1199 points,  6 beta functions with: 
                l(1) =   0
                l(2) =   0
                l(3) =   1
                l(4) =   1
                l(5) =   2
                l(6) =   2
     Q(r) pseudized with 0 coefficients 


     atomic species   valence    mass     pseudopotential
     O                 6.00    15.99940     O ( 1.00)
     Ca               10.00    40.07800     Ca( 1.00)
     Cu1              11.00    63.54600     Cu( 1.00)
     Cu2              11.00    63.54600     Cu( 1.00)

     Starting magnetic structure 
     atomic species   magnetization
     O               0.000
     Ca              0.000
     Cu1             0.800
     Cu2            -0.800

     16 Sym. Ops., with inversion, found


                                    s                        frac. trans.

      isym =  1     identity                                     

 cryst.   s( 1) = (     1          0          0      )
                  (     0          1          0      )
                  (     0          0          1      )

 cart.    s( 1) = (  1.0000000  0.0000000  0.0000000 )
                  (  0.0000000  1.0000000  0.0000000 )
                  (  0.0000000  0.0000000  1.0000000 )


      isym =  2     180 deg rotation - cart. axis [0,0,1]        

 cryst.   s( 2) = (    -1          0          0      )
                  (     0         -1          0      )
                  (     0          0          1      )

 cart.    s( 2) = ( -1.0000000  0.0000000  0.0000000 )
                  (  0.0000000 -1.0000000  0.0000000 )
                  (  0.0000000  0.0000000  1.0000000 )


      isym =  3     180 deg rotation - cart. axis [0,1,0]        

 cryst.   s( 3) = (    -1          0          0      )
                  (     0          1          0      )
                  (     0          0         -1      )

 cart.    s( 3) = ( -1.0000000  0.0000000  0.0000000 )
                  (  0.0000000  1.0000000  0.0000000 )
                  (  0.0000000  0.0000000 -1.0000000 )


      isym =  4     180 deg rotation - cart. axis [1,0,0]        

 cryst.   s( 4) = (     1          0          0      )
                  (     0         -1          0      )
                  (     0          0         -1      )

 cart.    s( 4) = (  1.0000000  0.0000000  0.0000000 )
                  (  0.0000000 -1.0000000  0.0000000 )
                  (  0.0000000  0.0000000 -1.0000000 )


      isym =  5     180 deg rotation - cart. axis [1,1,0]        

 cryst.   s( 5) = (     0          1          0      )
                  (     1          0          0      )
                  (     0          0         -1      )

 cart.    s( 5) = (  0.0000000  1.0000000  0.0000000 )
                  (  1.0000000  0.0000000  0.0000000 )
                  (  0.0000000  0.0000000 -1.0000000 )


      isym =  6     180 deg rotation - cart. axis [1,-1,0]       

 cryst.   s( 6) = (     0         -1          0      )
                  (    -1          0          0      )
                  (     0          0         -1      )

 cart.    s( 6) = (  0.0000000 -1.0000000  0.0000000 )
                  ( -1.0000000  0.0000000  0.0000000 )
                  (  0.0000000  0.0000000 -1.0000000 )


      isym =  7      90 deg rotation - cart. axis [0,0,-1]       

 cryst.   s( 7) = (     0         -1          0      )
                  (     1          0          0      )
                  (     0          0          1      )

 cart.    s( 7) = (  0.0000000  1.0000000  0.0000000 )
                  ( -1.0000000  0.0000000  0.0000000 )
                  (  0.0000000  0.0000000  1.0000000 )


      isym =  8      90 deg rotation - cart. axis [0,0,1]        

 cryst.   s( 8) = (     0          1          0      )
                  (    -1          0          0      )
                  (     0          0          1      )

 cart.    s( 8) = (  0.0000000 -1.0000000  0.0000000 )
                  (  1.0000000  0.0000000  0.0000000 )
                  (  0.0000000  0.0000000  1.0000000 )


      isym =  9     inversion                                    

 cryst.   s( 9) = (    -1          0          0      )
                  (     0         -1          0      )
                  (     0          0         -1      )

 cart.    s( 9) = ( -1.0000000  0.0000000  0.0000000 )
                  (  0.0000000 -1.0000000  0.0000000 )
                  (  0.0000000  0.0000000 -1.0000000 )


      isym = 10     inv. 180 deg rotation - cart. axis [0,0,1]   

 cryst.   s(10) = (     1          0          0      )
                  (     0          1          0      )
                  (     0          0         -1      )

 cart.    s(10) = (  1.0000000  0.0000000  0.0000000 )
                  (  0.0000000  1.0000000  0.0000000 )
                  (  0.0000000  0.0000000 -1.0000000 )


      isym = 11     inv. 180 deg rotation - cart. axis [0,1,0]   

 cryst.   s(11) = (     1          0          0      )
                  (     0         -1          0      )
                  (     0          0          1      )

 cart.    s(11) = (  1.0000000  0.0000000  0.0000000 )
                  (  0.0000000 -1.0000000  0.0000000 )
                  (  0.0000000  0.0000000  1.0000000 )


      isym = 12     inv. 180 deg rotation - cart. axis [1,0,0]   

 cryst.   s(12) = (    -1          0          0      )
                  (     0          1          0      )
                  (     0          0          1      )

 cart.    s(12) = ( -1.0000000  0.0000000  0.0000000 )
                  (  0.0000000  1.0000000  0.0000000 )
                  (  0.0000000  0.0000000  1.0000000 )


      isym = 13     inv. 180 deg rotation - cart. axis [1,1,0]   

 cryst.   s(13) = (     0         -1          0      )
                  (    -1          0          0      )
                  (     0          0          1      )

 cart.    s(13) = (  0.0000000 -1.0000000  0.0000000 )
                  ( -1.0000000  0.0000000  0.0000000 )
                  (  0.0000000  0.0000000  1.0000000 )


      isym = 14     inv. 180 deg rotation - cart. axis [1,-1,0]  

 cryst.   s(14) = (     0          1          0      )
                  (     1          0          0      )
                  (     0          0          1      )

 cart.    s(14) = (  0.0000000  1.0000000  0.0000000 )
                  (  1.0000000  0.0000000  0.0000000 )
                  (  0.0000000  0.0000000  1.0000000 )


      isym = 15     inv.  90 deg rotation - cart. axis [0,0,-1]  

 cryst.   s(15) = (     0          1          0      )
                  (    -1          0          0      )
                  (     0          0         -1      )

 cart.    s(15) = (  0.0000000 -1.0000000  0.0000000 )
                  (  1.0000000  0.0000000  0.0000000 )
                  (  0.0000000  0.0000000 -1.0000000 )


      isym = 16     inv.  90 deg rotation - cart. axis [0,0,1]   

 cryst.   s(16) = (     0         -1          0      )
                  (     1          0          0      )
                  (     0          0         -1      )

 cart.    s(16) = (  0.0000000  1.0000000  0.0000000 )
                  ( -1.0000000  0.0000000  0.0000000 )
                  (  0.0000000  0.0000000 -1.0000000 )


   Cartesian axes

     site n.     atom                  positions (alat units)
         1        Ca     tau(   1) = (   0.2500000   0.2500000   0.2061657  )
         2        Ca     tau(   2) = (   0.2500000   0.7500000   0.2061657  )
         3        Ca     tau(   3) = (   0.7500000   0.2500000   0.2061657  )
         4        Ca     tau(   4) = (   0.7500000   0.7500000   0.2061657  )
         5        Cu1    tau(   5) = (   0.0000000   0.0000000   0.0000000  )
         6        Cu2    tau(   6) = (   0.0000000   0.5000000   0.0000000  )
         7        Cu2    tau(   7) = (   0.5000000   0.0000000   0.0000000  )
         8        Cu1    tau(   8) = (   0.5000000   0.5000000   0.0000000  )
         9        O      tau(   9) = (   0.2500000   0.0000000   0.0000000  )
        10        O      tau(  10) = (   0.2500000   0.5000000   0.0000000  )
        11        O      tau(  11) = (   0.7500000   0.0000000   0.0000000  )
        12        O      tau(  12) = (   0.7500000   0.5000000   0.0000000  )
        13        O      tau(  13) = (   0.0000000   0.2500000   0.0000000  )
        14        O      tau(  14) = (   0.0000000   0.7500000   0.0000000  )
        15        O      tau(  15) = (   0.5000000   0.2500000   0.0000000  )
        16        O      tau(  16) = (   0.5000000   0.7500000   0.0000000  )

   Crystallographic axes

     site n.     atom                  positions (cryst. coord.)
         1        Ca     tau(   1) = (  0.2500000  0.2500000  0.5000000  )
         2        Ca     tau(   2) = (  0.2500000  0.7500000  0.5000000  )
         3        Ca     tau(   3) = (  0.7500000  0.2500000  0.5000000  )
         4        Ca     tau(   4) = (  0.7500000  0.7500000  0.5000000  )
         5        Cu1    tau(   5) = (  0.0000000  0.0000000  0.0000000  )
         6        Cu2    tau(   6) = (  0.0000000  0.5000000  0.0000000  )
         7        Cu2    tau(   7) = (  0.5000000  0.0000000  0.0000000  )
         8        Cu1    tau(   8) = (  0.5000000  0.5000000  0.0000000  )
         9        O      tau(   9) = (  0.2500000  0.0000000  0.0000000  )
        10        O      tau(  10) = (  0.2500000  0.5000000  0.0000000  )
        11        O      tau(  11) = (  0.7500000  0.0000000  0.0000000  )
        12        O      tau(  12) = (  0.7500000  0.5000000  0.0000000  )
        13        O      tau(  13) = (  0.0000000  0.2500000  0.0000000  )
        14        O      tau(  14) = (  0.0000000  0.7500000  0.0000000  )
        15        O      tau(  15) = (  0.5000000  0.2500000  0.0000000  )
        16        O      tau(  16) = (  0.5000000  0.7500000  0.0000000  )

     number of k points=    42 (tetrahedron method)
                       cart. coord. in units 2pi/alat
        k(    1) = (   0.0000000   0.0000000   0.0000000), wk =   0.0033333
        k(    2) = (   0.0000000   0.0000000   0.2021028), wk =   0.0066667
        k(    3) = (   0.0000000   0.0000000   0.4042056), wk =   0.0066667
        k(    4) = (   0.0000000   0.0000000   0.6063084), wk =   0.0066667
        k(    5) = (   0.0000000   0.0000000   0.8084112), wk =   0.0066667
        k(    6) = (   0.0000000   0.0000000   1.0105140), wk =   0.0066667
        k(    7) = (   0.0000000   0.0000000  -1.2126168), wk =   0.0033333
        k(    8) = (   0.0000000   0.2000000   0.0000000), wk =   0.0133333
        k(    9) = (   0.0000000   0.2000000   0.2021028), wk =   0.0266667
        k(   10) = (   0.0000000   0.2000000   0.4042056), wk =   0.0266667
        k(   11) = (   0.0000000   0.2000000   0.6063084), wk =   0.0266667
        k(   12) = (   0.0000000   0.2000000   0.8084112), wk =   0.0266667
        k(   13) = (   0.0000000   0.2000000   1.0105140), wk =   0.0266667
        k(   14) = (   0.0000000   0.2000000  -1.2126168), wk =   0.0133333
        k(   15) = (   0.0000000   0.4000000   0.0000000), wk =   0.0133333
        k(   16) = (   0.0000000   0.4000000   0.2021028), wk =   0.0266667
        k(   17) = (   0.0000000   0.4000000   0.4042056), wk =   0.0266667
        k(   18) = (   0.0000000   0.4000000   0.6063084), wk =   0.0266667
        k(   19) = (   0.0000000   0.4000000   0.8084112), wk =   0.0266667
        k(   20) = (   0.0000000   0.4000000   1.0105140), wk =   0.0266667
        k(   21) = (   0.0000000   0.4000000  -1.2126168), wk =   0.0133333
        k(   22) = (   0.2000000   0.2000000   0.0000000), wk =   0.0133333
        k(   23) = (   0.2000000   0.2000000   0.2021028), wk =   0.0266667
        k(   24) = (   0.2000000   0.2000000   0.4042056), wk =   0.0266667
        k(   25) = (   0.2000000   0.2000000   0.6063084), wk =   0.0266667
        k(   26) = (   0.2000000   0.2000000   0.8084112), wk =   0.0266667
        k(   27) = (   0.2000000   0.2000000   1.0105140), wk =   0.0266667
        k(   28) = (   0.2000000   0.2000000  -1.2126168), wk =   0.0133333
        k(   29) = (   0.2000000   0.4000000   0.0000000), wk =   0.0266667
        k(   30) = (   0.2000000   0.4000000   0.2021028), wk =   0.0533333
        k(   31) = (   0.2000000   0.4000000   0.4042056), wk =   0.0533333
        k(   32) = (   0.2000000   0.4000000   0.6063084), wk =   0.0533333
        k(   33) = (   0.2000000   0.4000000   0.8084112), wk =   0.0533333
        k(   34) = (   0.2000000   0.4000000   1.0105140), wk =   0.0533333
        k(   35) = (   0.2000000   0.4000000  -1.2126168), wk =   0.0266667
        k(   36) = (   0.4000000   0.4000000   0.0000000), wk =   0.0133333
        k(   37) = (   0.4000000   0.4000000   0.2021028), wk =   0.0266667
        k(   38) = (   0.4000000   0.4000000   0.4042056), wk =   0.0266667
        k(   39) = (   0.4000000   0.4000000   0.6063084), wk =   0.0266667
        k(   40) = (   0.4000000   0.4000000   0.8084112), wk =   0.0266667
        k(   41) = (   0.4000000   0.4000000   1.0105140), wk =   0.0266667
        k(   42) = (   0.4000000   0.4000000  -1.2126168), wk =   0.0133333

                       cryst. coord.
        k(    1) = (   0.0000000   0.0000000   0.0000000), wk =   0.0033333
        k(    2) = (   0.0000000   0.0000000   0.0833333), wk =   0.0066667
        k(    3) = (   0.0000000   0.0000000   0.1666667), wk =   0.0066667
        k(    4) = (   0.0000000   0.0000000   0.2500000), wk =   0.0066667
        k(    5) = (   0.0000000   0.0000000   0.3333333), wk =   0.0066667
        k(    6) = (   0.0000000   0.0000000   0.4166667), wk =   0.0066667
        k(    7) = (   0.0000000   0.0000000  -0.5000000), wk =   0.0033333
        k(    8) = (   0.0000000   0.2000000   0.0000000), wk =   0.0133333
        k(    9) = (   0.0000000   0.2000000   0.0833333), wk =   0.0266667
        k(   10) = (   0.0000000   0.2000000   0.1666667), wk =   0.0266667
        k(   11) = (   0.0000000   0.2000000   0.2500000), wk =   0.0266667
        k(   12) = (   0.0000000   0.2000000   0.3333333), wk =   0.0266667
        k(   13) = (   0.0000000   0.2000000   0.4166667), wk =   0.0266667
        k(   14) = (   0.0000000   0.2000000  -0.5000000), wk =   0.0133333
        k(   15) = (   0.0000000   0.4000000   0.0000000), wk =   0.0133333
        k(   16) = (   0.0000000   0.4000000   0.0833333), wk =   0.0266667
        k(   17) = (   0.0000000   0.4000000   0.1666667), wk =   0.0266667
        k(   18) = (   0.0000000   0.4000000   0.2500000), wk =   0.0266667
        k(   19) = (   0.0000000   0.4000000   0.3333333), wk =   0.0266667
        k(   20) = (   0.0000000   0.4000000   0.4166667), wk =   0.0266667
        k(   21) = (   0.0000000   0.4000000  -0.5000000), wk =   0.0133333
        k(   22) = (   0.2000000   0.2000000   0.0000000), wk =   0.0133333
        k(   23) = (   0.2000000   0.2000000   0.0833333), wk =   0.0266667
        k(   24) = (   0.2000000   0.2000000   0.1666667), wk =   0.0266667
        k(   25) = (   0.2000000   0.2000000   0.2500000), wk =   0.0266667
        k(   26) = (   0.2000000   0.2000000   0.3333333), wk =   0.0266667
        k(   27) = (   0.2000000   0.2000000   0.4166667), wk =   0.0266667
        k(   28) = (   0.2000000   0.2000000  -0.5000000), wk =   0.0133333
        k(   29) = (   0.2000000   0.4000000   0.0000000), wk =   0.0266667
        k(   30) = (   0.2000000   0.4000000   0.0833333), wk =   0.0533333
        k(   31) = (   0.2000000   0.4000000   0.1666667), wk =   0.0533333
        k(   32) = (   0.2000000   0.4000000   0.2500000), wk =   0.0533333
        k(   33) = (   0.2000000   0.4000000   0.3333333), wk =   0.0533333
        k(   34) = (   0.2000000   0.4000000   0.4166667), wk =   0.0533333
        k(   35) = (   0.2000000   0.4000000  -0.5000000), wk =   0.0266667
        k(   36) = (   0.4000000   0.4000000   0.0000000), wk =   0.0133333
        k(   37) = (   0.4000000   0.4000000   0.0833333), wk =   0.0266667
        k(   38) = (   0.4000000   0.4000000   0.1666667), wk =   0.0266667
        k(   39) = (   0.4000000   0.4000000   0.2500000), wk =   0.0266667
        k(   40) = (   0.4000000   0.4000000   0.3333333), wk =   0.0266667
        k(   41) = (   0.4000000   0.4000000   0.4166667), wk =   0.0266667
        k(   42) = (   0.4000000   0.4000000  -0.5000000), wk =   0.0133333

     Dense  grid:   410459 G-vectors     FFT dimensions: ( 125, 125,  54)

     Smooth grid:   145097 G-vectors     FFT dimensions: (  90,  90,  40)

     Dynamical RAM for                 wfc:       5.47 MB

     Dynamical RAM for     wfc (w. buffer):      38.26 MB

     Dynamical RAM for             U proj.:       1.38 MB

     Dynamical RAM for  U proj. (w. buff.):       9.69 MB

     Dynamical RAM for           str. fact:       6.26 MB

     Dynamical RAM for           local pot:       0.00 MB

     Dynamical RAM for          nlocal pot:      14.39 MB

     Dynamical RAM for                qrad:       8.61 MB

     Dynamical RAM for          rho,v,vnew:      19.41 MB

     Dynamical RAM for               rhoin:       6.47 MB

     Dynamical RAM for            rho*nmix:      50.10 MB

     Dynamical RAM for           G-vectors:       6.15 MB

     Dynamical RAM for          h,s,v(r/c):       1.14 MB

     Dynamical RAM for          <psi|beta>:       0.25 MB

     Dynamical RAM for                 psi:      10.93 MB

     Dynamical RAM for                hpsi:      10.93 MB

     Dynamical RAM for                spsi:      10.93 MB

     Dynamical RAM for      wfcinit/wfcrot:      11.07 MB

     Dynamical RAM for           addusdens:      22.02 MB

     Estimated static dynamical RAM per process >     127.08 MB

     Estimated max dynamical RAM per process >     211.37 MB

     Estimated total dynamical RAM >      10.27 GB
     Generating pointlists ...
     new r_m :   0.1031 (alat units)  1.4957 (a.u.) for type    1
     new r_m :   0.1337 (alat units)  1.9387 (a.u.) for type    2
     new r_m :   0.1031 (alat units)  1.4957 (a.u.) for type    3
     new r_m :   0.1031 (alat units)  1.4957 (a.u.) for type    4

     Initial potential from superposition of free atoms

     starting charge     131.9772, renormalised to     132.0000

     HUBBARD ENERGY =    0.2117  (Ry)

     STARTING HUBBARD OCCUPATIONS:

     =================== HUBBARD OCCUPATIONS ===================
     ------------------------ ATOM    5 ------------------------
     Tr[ns(  5)] (up, down, total) =   5.00000  4.50000  9.50000
     Atomic magnetic moment for atom   5 =   0.50000
     SPIN  1
     eigenvalues:
       1.000  1.000  1.000  1.000  1.000
     eigenvectors (columns):
       1.000  0.000  0.000  0.000  0.000
       0.000  1.000  0.000  0.000  0.000
       0.000  0.000  1.000  0.000  0.000
       0.000  0.000  0.000  1.000  0.000
       0.000  0.000  0.000  0.000  1.000
     occupation matrix ns (before diag.):
       1.000  0.000  0.000  0.000  0.000
       0.000  1.000  0.000  0.000  0.000
       0.000  0.000  1.000  0.000  0.000
       0.000  0.000  0.000  1.000  0.000
       0.000  0.000  0.000  0.000  1.000
     SPIN  2
     eigenvalues:
       0.900  0.900  0.900  0.900  0.900
     eigenvectors (columns):
       1.000  0.000  0.000  0.000  0.000
       0.000  1.000  0.000  0.000  0.000
       0.000  0.000  1.000  0.000  0.000
       0.000  0.000  0.000  1.000  0.000
       0.000  0.000  0.000  0.000  1.000
     occupation matrix ns (before diag.):
       0.900  0.000  0.000  0.000  0.000
       0.000  0.900  0.000  0.000  0.000
       0.000  0.000  0.900  0.000  0.000
       0.000  0.000  0.000  0.900  0.000
       0.000  0.000  0.000  0.000  0.900
     ------------------------ ATOM    6 ------------------------
     Tr[ns(  6)] (up, down, total) =   4.50000  5.00000  9.50000
     Atomic magnetic moment for atom   6 =  -0.50000
     SPIN  1
     eigenvalues:
       0.900  0.900  0.900  0.900  0.900
     eigenvectors (columns):
       1.000  0.000  0.000  0.000  0.000
       0.000  1.000  0.000  0.000  0.000
       0.000  0.000  1.000  0.000  0.000
       0.000  0.000  0.000  1.000  0.000
       0.000  0.000  0.000  0.000  1.000
     occupation matrix ns (before diag.):
       0.900  0.000  0.000  0.000  0.000
       0.000  0.900  0.000  0.000  0.000
       0.000  0.000  0.900  0.000  0.000
       0.000  0.000  0.000  0.900  0.000
       0.000  0.000  0.000  0.000  0.900
     SPIN  2
     eigenvalues:
       1.000  1.000  1.000  1.000  1.000
     eigenvectors (columns):
       1.000  0.000  0.000  0.000  0.000
       0.000  1.000  0.000  0.000  0.000
       0.000  0.000  1.000  0.000  0.000
       0.000  0.000  0.000  1.000  0.000
       0.000  0.000  0.000  0.000  1.000
     occupation matrix ns (before diag.):
       1.000  0.000  0.000  0.000  0.000
       0.000  1.000  0.000  0.000  0.000
       0.000  0.000  1.000  0.000  0.000
       0.000  0.000  0.000  1.000  0.000
       0.000  0.000  0.000  0.000  1.000
     ------------------------ ATOM    7 ------------------------
     Tr[ns(  7)] (up, down, total) =   4.50000  5.00000  9.50000
     Atomic magnetic moment for atom   7 =  -0.50000
     SPIN  1
     eigenvalues:
       0.900  0.900  0.900  0.900  0.900
     eigenvectors (columns):
       1.000  0.000  0.000  0.000  0.000
       0.000  1.000  0.000  0.000  0.000
       0.000  0.000  1.000  0.000  0.000
       0.000  0.000  0.000  1.000  0.000
       0.000  0.000  0.000  0.000  1.000
     occupation matrix ns (before diag.):
       0.900  0.000  0.000  0.000  0.000
       0.000  0.900  0.000  0.000  0.000
       0.000  0.000  0.900  0.000  0.000
       0.000  0.000  0.000  0.900  0.000
       0.000  0.000  0.000  0.000  0.900
     SPIN  2
     eigenvalues:
       1.000  1.000  1.000  1.000  1.000
     eigenvectors (columns):
       1.000  0.000  0.000  0.000  0.000
       0.000  1.000  0.000  0.000  0.000
       0.000  0.000  1.000  0.000  0.000
       0.000  0.000  0.000  1.000  0.000
       0.000  0.000  0.000  0.000  1.000
     occupation matrix ns (before diag.):
       1.000  0.000  0.000  0.000  0.000
       0.000  1.000  0.000  0.000  0.000
       0.000  0.000  1.000  0.000  0.000
       0.000  0.000  0.000  1.000  0.000
       0.000  0.000  0.000  0.000  1.000
     ------------------------ ATOM    8 ------------------------
     Tr[ns(  8)] (up, down, total) =   5.00000  4.50000  9.50000
     Atomic magnetic moment for atom   8 =   0.50000
     SPIN  1
     eigenvalues:
       1.000  1.000  1.000  1.000  1.000
     eigenvectors (columns):
       1.000  0.000  0.000  0.000  0.000
       0.000  1.000  0.000  0.000  0.000
       0.000  0.000  1.000  0.000  0.000
       0.000  0.000  0.000  1.000  0.000
       0.000  0.000  0.000  0.000  1.000
     occupation matrix ns (before diag.):
       1.000  0.000  0.000  0.000  0.000
       0.000  1.000  0.000  0.000  0.000
       0.000  0.000  1.000  0.000  0.000
       0.000  0.000  0.000  1.000  0.000
       0.000  0.000  0.000  0.000  1.000
     SPIN  2
     eigenvalues:
       0.900  0.900  0.900  0.900  0.900
     eigenvectors (columns):
       1.000  0.000  0.000  0.000  0.000
       0.000  1.000  0.000  0.000  0.000
       0.000  0.000  1.000  0.000  0.000
       0.000  0.000  0.000  1.000  0.000
       0.000  0.000  0.000  0.000  1.000
     occupation matrix ns (before diag.):
       0.900  0.000  0.000  0.000  0.000
       0.000  0.900  0.000  0.000  0.000
       0.000  0.000  0.900  0.000  0.000
       0.000  0.000  0.000  0.900  0.000
       0.000  0.000  0.000  0.000  0.900

     Number of occupied Hubbard levels =   38.0000

     Atomic wfc used for Hubbard projectors are orthogonalized

     Starting wfcs are  108 randomized atomic wfcs
     Checking if some PAW data can be deallocated... 
       PAW data deallocated on   32 nodes for type:  1
       PAW data deallocated on   56 nodes for type:  3
       PAW data deallocated on   56 nodes for type:  4

     total cpu time spent up to now is        7.3 secs

     per-process dynamical memory:   159.1 Mb

     Self-consistent Calculation

     iteration #  1     ecut=    90.00 Ry     beta= 0.30
     Davidson diagonalization with overlap

---- Real-time Memory Report at c_bands before calling an iterative solver
           189 MiB given to the printing process from OS
           155 MiB allocation reported by mallinfo(arena+hblkhd)
        483003 MiB available memory on the node where the printing process lives
------------------
     ethr =  1.00E-02,  avg # of iterations =  2.0

     =================== HUBBARD OCCUPATIONS ===================
     ------------------------ ATOM    5 ------------------------
     Tr[ns(  5)] (up, down, total) =   4.97003  3.21640  8.18644
     Atomic magnetic moment for atom   5 =   1.75363
     SPIN  1
     eigenvalues:
       0.987  0.992  0.997  0.997  0.997
     eigenvectors (columns):
      -1.000 -0.000  0.000  0.000  0.000
      -0.000 -0.000 -0.395 -0.919  0.000
      -0.000 -0.000 -0.919  0.395  0.000
      -0.000  1.000 -0.000 -0.000 -0.000
       0.000  0.000  0.000  0.000  1.000
     occupation matrix ns (before diag.):
       0.987 -0.000 -0.000 -0.000  0.000
      -0.000  0.997 -0.000  0.000  0.000
      -0.000 -0.000  0.997  0.000  0.000
      -0.000  0.000  0.000  0.992 -0.000
       0.000  0.000  0.000 -0.000  0.997
     SPIN  2
     eigenvalues:
       0.167  0.520  0.796  0.796  0.938
     eigenvectors (columns):
       0.000 -1.000  0.000 -0.000  0.000
      -0.000 -0.000 -0.438  0.899  0.000
      -0.000 -0.000 -0.899 -0.438  0.000
       1.000  0.000 -0.000  0.000 -0.000
       0.000  0.000  0.000  0.000  1.000
     occupation matrix ns (before diag.):
       0.520 -0.000 -0.000 -0.000  0.000
      -0.000  0.796 -0.000  0.000  0.000
      -0.000 -0.000  0.796  0.000  0.000
      -0.000  0.000  0.000  0.167 -0.000
       0.000  0.000  0.000 -0.000  0.938
     ------------------------ ATOM    6 ------------------------
     Tr[ns(  6)] (up, down, total) =   3.18957  4.96997  8.15954
     Atomic magnetic moment for atom   6 =  -1.78040
     SPIN  1
     eigenvalues:
       0.168  0.517  0.754  0.814  0.936
     eigenvectors (columns):
       0.005 -1.000  0.000 -0.000  0.000
      -0.000 -0.000 -0.000  1.000  0.000
      -0.000 -0.000 -1.000 -0.000  0.000
       1.000  0.005 -0.000  0.000 -0.000
       0.000  0.000  0.000 -0.000  1.000
     occupation matrix ns (before diag.):
       0.517 -0.000 -0.000 -0.002  0.000
      -0.000  0.814 -0.000  0.000  0.000
      -0.000 -0.000  0.754  0.000  0.000
      -0.002  0.000  0.000  0.168 -0.000
       0.000  0.000  0.000 -0.000  0.936
     SPIN  2
     eigenvalues:
       0.987  0.992  0.997  0.997  0.997
     eigenvectors (columns):
      -1.000 -0.005  0.000  0.000  0.000
      -0.000 -0.000 -1.000  0.000  0.000
      -0.000 -0.000 -0.000 -1.000  0.000
      -0.005  1.000 -0.000 -0.000 -0.000
       0.000  0.000  0.000  0.000  1.000
     occupation matrix ns (before diag.):
       0.987 -0.000 -0.000 -0.000  0.000
      -0.000  0.997 -0.000  0.000  0.000
      -0.000 -0.000  0.997  0.000  0.000
      -0.000  0.000  0.000  0.992 -0.000
       0.000  0.000  0.000 -0.000  0.997
     ------------------------ ATOM    7 ------------------------
     Tr[ns(  7)] (up, down, total) =   3.18957  4.96997  8.15954
     Atomic magnetic moment for atom   7 =  -1.78040
     SPIN  1
     eigenvalues:
       0.168  0.517  0.754  0.814  0.936
     eigenvectors (columns):
      -0.005  1.000  0.000  0.000  0.000
      -0.000  0.000 -1.000  0.000  0.000
      -0.000  0.000 -0.000 -1.000  0.000
       1.000  0.005 -0.000 -0.000 -0.000
       0.000 -0.000  0.000  0.000  1.000
     occupation matrix ns (before diag.):
       0.517 -0.000 -0.000  0.002  0.000
      -0.000  0.754 -0.000  0.000  0.000
      -0.000 -0.000  0.814  0.000  0.000
       0.002  0.000  0.000  0.168 -0.000
       0.000  0.000  0.000 -0.000  0.936
     SPIN  2
     eigenvalues:
       0.987  0.992  0.997  0.997  0.997
     eigenvectors (columns):
      -1.000  0.005  0.000  0.000  0.000
      -0.000 -0.000 -0.000 -1.000  0.000
      -0.000 -0.000 -1.000  0.000  0.000
       0.005  1.000 -0.000 -0.000 -0.000
       0.000  0.000  0.000  0.000  1.000
     occupation matrix ns (before diag.):
       0.987 -0.000 -0.000  0.000  0.000
      -0.000  0.997 -0.000  0.000  0.000
      -0.000 -0.000  0.997  0.000  0.000
       0.000  0.000  0.000  0.992 -0.000
       0.000  0.000  0.000 -0.000  0.997
     ------------------------ ATOM    8 ------------------------
     Tr[ns(  8)] (up, down, total) =   4.96993  3.05468  8.02461
     Atomic magnetic moment for atom   8 =   1.91525
     SPIN  1
     eigenvalues:
       0.987  0.992  0.997  0.997  0.997
     eigenvectors (columns):
      -1.000  0.000 -0.000  0.000  0.000
      -0.000  0.000  0.422 -0.906  0.000
      -0.000  0.000  0.906  0.422  0.000
      -0.000 -1.000  0.000 -0.000 -0.000
       0.000 -0.000 -0.000  0.000  1.000
     occupation matrix ns (before diag.):
       0.987 -0.000 -0.000 -0.000  0.000
      -0.000  0.997 -0.000  0.000  0.000
      -0.000 -0.000  0.997  0.000  0.000
      -0.000  0.000  0.000  0.992 -0.000
       0.000  0.000  0.000 -0.000  0.997
     SPIN  2
     eigenvalues:
       0.166  0.512  0.722  0.722  0.932
     eigenvectors (columns):
       0.000 -1.000  0.000 -0.000  0.000
      -0.000 -0.000 -0.433  0.901  0.000
      -0.000 -0.000 -0.901 -0.433  0.000
       1.000  0.000 -0.000  0.000 -0.000
       0.000  0.000  0.000  0.000  1.000
     occupation matrix ns (before diag.):
       0.512 -0.000 -0.000 -0.000  0.000
      -0.000  0.722 -0.000  0.000  0.000
      -0.000 -0.000  0.722  0.000  0.000
      -0.000  0.000  0.000  0.166 -0.000
       0.000  0.000  0.000 -0.000  0.932

     Number of occupied Hubbard levels =   32.5301

     HUBBARD ENERGY =    0.3901  (Ry)

     total cpu time spent up to now is       16.2 secs

     total energy              =   -1480.95697739 Ry
     estimated scf accuracy    <      14.24519656 Ry

     total magnetization       =     0.12 Bohr mag/cell
     absolute magnetization    =     8.45 Bohr mag/cell

     iteration #  2     ecut=    90.00 Ry     beta= 0.30
     Davidson diagonalization with overlap

---- Real-time Memory Report at c_bands before calling an iterative solver
           237 MiB given to the printing process from OS
           171 MiB allocation reported by mallinfo(arena+hblkhd)
        480411 MiB available memory on the node where the printing process lives
------------------
     ethr =  1.00E-02,  avg # of iterations =  2.0

     =================== HUBBARD OCCUPATIONS ===================
     ------------------------ ATOM    5 ------------------------
     Tr[ns(  5)] (up, down, total) =   4.95246  4.56139  9.51384
     Atomic magnetic moment for atom   5 =   0.39107
     SPIN  1
     eigenvalues:
       0.983  0.989  0.993  0.993  0.994
     eigenvectors (columns):
       0.000 -1.000  0.000 -0.000  0.000
      -0.000 -0.000 -0.391  0.920  0.000
      -0.000 -0.000 -0.920 -0.391  0.000
       1.000  0.000 -0.000  0.000 -0.000
       0.000  0.000  0.000 -0.000  1.000
     occupation matrix ns (before diag.):
       0.989 -0.000 -0.000 -0.000  0.000
      -0.000  0.993 -0.000  0.000  0.000
      -0.000 -0.000  0.993  0.000  0.000
      -0.000  0.000  0.000  0.983 -0.000
       0.000  0.000  0.000 -0.000  0.994
     SPIN  2
     eigenvalues:
       0.609  0.968  0.994  0.994  0.996
     eigenvectors (columns):
       0.000 -1.000  0.000 -0.000  0.000
      -0.000 -0.000 -0.440  0.898  0.000
      -0.000 -0.000 -0.898 -0.440  0.000
       1.000  0.000 -0.000  0.000 -0.000
       0.000  0.000  0.000  0.000  1.000
     occupation matrix ns (before diag.):
       0.968 -0.000 -0.000 -0.000  0.000
      -0.000  0.994 -0.000  0.000  0.000
      -0.000 -0.000  0.994  0.000  0.000
      -0.000  0.000  0.000  0.609 -0.000
       0.000  0.000  0.000 -0.000  0.996
     ------------------------ ATOM    6 ------------------------
     Tr[ns(  6)] (up, down, total) =   4.57388  4.95205  9.52593
     Atomic magnetic moment for atom   6 =  -0.37816
     SPIN  1
     eigenvalues:
       0.621  0.969  0.995  0.995  0.996
     eigenvectors (columns):
       0.003 -1.000  0.000 -0.000  0.000
      -0.000 -0.000 -0.000  1.000  0.000
      -0.000 -0.000 -1.000 -0.000  0.000
       1.000  0.003 -0.000  0.000 -0.000
       0.000  0.000  0.000 -0.000  1.000
     occupation matrix ns (before diag.):
       0.969 -0.000 -0.000 -0.001  0.000
      -0.000  0.995 -0.000  0.000  0.000
      -0.000 -0.000  0.995  0.000  0.000
      -0.001  0.000  0.000  0.621 -0.000
       0.000  0.000  0.000 -0.000  0.996
     SPIN  2
     eigenvalues:
       0.983  0.989  0.993  0.993  0.993
     eigenvectors (columns):
      -0.008 -1.000  0.000 -0.000  0.000
      -0.000 -0.000 -0.000  1.000  0.000
      -0.000 -0.000 -1.000 -0.000  0.000
       1.000 -0.008 -0.000  0.000 -0.000
       0.000  0.000  0.000 -0.000  1.000
     occupation matrix ns (before diag.):
       0.989 -0.000 -0.000  0.000  0.000
      -0.000  0.993 -0.000  0.000  0.000
      -0.000 -0.000  0.993  0.000  0.000
       0.000  0.000  0.000  0.983 -0.000
       0.000  0.000  0.000 -0.000  0.993
     ------------------------ ATOM    7 ------------------------
     Tr[ns(  7)] (up, down, total) =   4.57388  4.95205  9.52593
     Atomic magnetic moment for atom   7 =  -0.37816
     SPIN  1
     eigenvalues:
       0.621  0.969  0.995  0.995  0.996
     eigenvectors (columns):
      -0.003 -1.000 -0.000  0.000  0.000
      -0.000 -0.000  1.000  0.000  0.000
      -0.000 -0.000  0.000 -1.000  0.000
       1.000 -0.003  0.000 -0.000 -0.000
       0.000  0.000 -0.000  0.000  1.000
     occupation matrix ns (before diag.):
       0.969 -0.000 -0.000  0.001  0.000
      -0.000  0.995 -0.000  0.000  0.000
      -0.000 -0.000  0.995  0.000  0.000
       0.001  0.000  0.000  0.621 -0.000
       0.000  0.000  0.000 -0.000  0.996
     SPIN  2
     eigenvalues:
       0.983  0.989  0.993  0.993  0.993
     eigenvectors (columns):
       0.008 -1.000 -0.000  0.000  0.000
      -0.000 -0.000  1.000  0.000  0.000
      -0.000 -0.000  0.000 -1.000  0.000
       1.000  0.008  0.000 -0.000 -0.000
       0.000  0.000 -0.000  0.000  1.000
     occupation matrix ns (before diag.):
       0.989 -0.000 -0.000 -0.000  0.000
      -0.000  0.993 -0.000  0.000  0.000
      -0.000 -0.000  0.993  0.000  0.000
      -0.000  0.000  0.000  0.983 -0.000
       0.000  0.000  0.000 -0.000  0.993
     ------------------------ ATOM    8 ------------------------
     Tr[ns(  8)] (up, down, total) =   4.95108  4.69918  9.65025
     Atomic magnetic moment for atom   8 =   0.25190
     SPIN  1
     eigenvalues:
       0.985  0.989  0.992  0.992  0.993
     eigenvectors (columns):
       0.000 -1.000  0.000 -0.000  0.000
      -0.000 -0.000 -0.385  0.923  0.000
      -0.000 -0.000 -0.923 -0.385  0.000
       1.000  0.000 -0.000  0.000 -0.000
       0.000  0.000  0.000 -0.000  1.000
     occupation matrix ns (before diag.):
       0.989 -0.000 -0.000 -0.000  0.000
      -0.000  0.992 -0.000  0.000  0.000
      -0.000 -0.000  0.992  0.000  0.000
      -0.000  0.000  0.000  0.985 -0.000
       0.000  0.000  0.000 -0.000  0.993
     SPIN  2
     eigenvalues:
       0.741  0.973  0.995  0.995  0.996
     eigenvectors (columns):
       0.000 -1.000  0.000 -0.000  0.000
      -0.000 -0.000 -0.395  0.919  0.000
      -0.000 -0.000 -0.919 -0.395  0.000
       1.000  0.000 -0.000  0.000 -0.000
       0.000  0.000  0.000 -0.000  1.000
     occupation matrix ns (before diag.):
       0.973 -0.000 -0.000 -0.000  0.000
      -0.000  0.995 -0.000  0.000  0.000
      -0.000 -0.000  0.995  0.000  0.000
      -0.000  0.000  0.000  0.741 -0.000
       0.000  0.000  0.000 -0.000  0.996

     Number of occupied Hubbard levels =   38.2160

     HUBBARD ENERGY =    0.3836  (Ry)

     total cpu time spent up to now is       25.8 secs

     total energy              =   -1484.42319681 Ry
     estimated scf accuracy    <       8.17312493 Ry

     total magnetization       =    -0.08 Bohr mag/cell
     absolute magnetization    =     2.74 Bohr mag/cell

     iteration #  3     ecut=    90.00 Ry     beta= 0.30
     Davidson diagonalization with overlap

---- Real-time Memory Report at c_bands before calling an iterative solver
           240 MiB given to the printing process from OS
           173 MiB allocation reported by mallinfo(arena+hblkhd)
        480679 MiB available memory on the node where the printing process lives
------------------
     ethr =  6.19E-03,  avg # of iterations =  1.0

     =================== HUBBARD OCCUPATIONS ===================
     ------------------------ ATOM    5 ------------------------
     Tr[ns(  5)] (up, down, total) =   4.96038  4.28526  9.24564
     Atomic magnetic moment for atom   5 =   0.67512
     SPIN  1
     eigenvalues:
       0.985  0.985  0.997  0.997  0.997
     eigenvectors (columns):
       1.000 -0.000  0.000  0.000  0.000
       0.000 -0.000 -0.393 -0.920  0.000
       0.000 -0.000 -0.920  0.393  0.000
       0.000  1.000 -0.000 -0.000 -0.000
      -0.000  0.000  0.000  0.000  1.000
     occupation matrix ns (before diag.):
       0.985 -0.000 -0.000 -0.000  0.000
      -0.000  0.997 -0.000  0.000  0.000
      -0.000 -0.000  0.997  0.000  0.000
      -0.000  0.000  0.000  0.985 -0.000
       0.000  0.000  0.000 -0.000  0.997
     SPIN  2
     eigenvalues:
       0.360  0.943  0.993  0.993  0.996
     eigenvectors (columns):
       0.000 -1.000  0.000 -0.000  0.000
      -0.000 -0.000 -0.383  0.924  0.000
      -0.000 -0.000 -0.924 -0.383  0.000
       1.000  0.000 -0.000  0.000 -0.000
       0.000  0.000  0.000 -0.000  1.000
     occupation matrix ns (before diag.):
       0.943 -0.000 -0.000 -0.000  0.000
      -0.000  0.993 -0.000  0.000  0.000
      -0.000 -0.000  0.993  0.000  0.000
      -0.000  0.000  0.000  0.360 -0.000
       0.000  0.000  0.000 -0.000  0.996
     ------------------------ ATOM    6 ------------------------
     Tr[ns(  6)] (up, down, total) =   4.28542  4.96029  9.24571
     Atomic magnetic moment for atom   6 =  -0.67486
     SPIN  1
     eigenvalues:
       0.361  0.943  0.992  0.993  0.996
     eigenvectors (columns):
      -0.001 -1.000  0.000 -0.000  0.000
      -0.000 -0.000 -0.000  1.000  0.000
      -0.000 -0.000 -1.000 -0.000  0.000
       1.000 -0.001 -0.000  0.000 -0.000
       0.000  0.000  0.000 -0.000  1.000
     occupation matrix ns (before diag.):
       0.943 -0.000 -0.000  0.000  0.000
      -0.000  0.993 -0.000  0.000  0.000
      -0.000 -0.000  0.992  0.000  0.000
       0.000  0.000  0.000  0.361 -0.000
       0.000  0.000  0.000 -0.000  0.996
     SPIN  2
     eigenvalues:
       0.985  0.985  0.997  0.997  0.997
     eigenvectors (columns):
      -0.976  0.217  0.000  0.000  0.000
      -0.000 -0.000 -1.000  0.000  0.000
      -0.000 -0.000 -0.000 -1.000  0.000
       0.217  0.976 -0.000 -0.000 -0.000
       0.000  0.000  0.000  0.000  1.000
     occupation matrix ns (before diag.):
       0.985 -0.000 -0.000  0.000  0.000
      -0.000  0.997 -0.000  0.000  0.000
      -0.000 -0.000  0.997  0.000  0.000
       0.000  0.000  0.000  0.985 -0.000
       0.000  0.000  0.000 -0.000  0.997
     ------------------------ ATOM    7 ------------------------
     Tr[ns(  7)] (up, down, total) =   4.28542  4.96029  9.24571
     Atomic magnetic moment for atom   7 =  -0.67486
     SPIN  1
     eigenvalues:
       0.361  0.943  0.992  0.993  0.996
     eigenvectors (columns):
       0.001 -1.000 -0.000  0.000  0.000
      -0.000 -0.000  1.000  0.000  0.000
      -0.000 -0.000  0.000 -1.000  0.000
       1.000  0.001  0.000 -0.000 -0.000
       0.000  0.000 -0.000  0.000  1.000
     occupation matrix ns (before diag.):
       0.943 -0.000 -0.000 -0.000  0.000
      -0.000  0.992 -0.000  0.000  0.000
      -0.000 -0.000  0.993  0.000  0.000
      -0.000  0.000  0.000  0.361 -0.000
       0.000  0.000  0.000 -0.000  0.996
     SPIN  2
     eigenvalues:
       0.985  0.985  0.997  0.997  0.997
     eigenvectors (columns):
       0.976 -0.217  0.000  0.000  0.000
       0.000 -0.000 -0.000 -1.000  0.000
       0.000 -0.000 -1.000  0.000  0.000
       0.217  0.976 -0.000 -0.000 -0.000
      -0.000  0.000  0.000  0.000  1.000
     occupation matrix ns (before diag.):
       0.985 -0.000 -0.000 -0.000  0.000
      -0.000  0.997 -0.000  0.000  0.000
      -0.000 -0.000  0.997  0.000  0.000
      -0.000  0.000  0.000  0.985 -0.000
       0.000  0.000  0.000 -0.000  0.997
     ------------------------ ATOM    8 ------------------------
     Tr[ns(  8)] (up, down, total) =   4.95884  4.26496  9.22379
     Atomic magnetic moment for atom   8 =   0.69388
     SPIN  1
     eigenvalues:
       0.984  0.984  0.997  0.997  0.997
     eigenvectors (columns):
       0.000 -1.000 -0.000  0.000  0.000
      -0.000 -0.000  0.379 -0.926  0.000
      -0.000 -0.000  0.926  0.379  0.000
       1.000  0.000  0.000 -0.000 -0.000
       0.000  0.000 -0.000  0.000  1.000
     occupation matrix ns (before diag.):
       0.984 -0.000 -0.000 -0.000  0.000
      -0.000  0.997 -0.000  0.000  0.000
      -0.000 -0.000  0.997  0.000  0.000
      -0.000  0.000  0.000  0.984 -0.000
       0.000  0.000  0.000 -0.000  0.997
     SPIN  2
     eigenvalues:
       0.346  0.940  0.992  0.992  0.996
     eigenvectors (columns):
       0.000 -1.000  0.000 -0.000  0.000
      -0.000 -0.000 -0.412  0.911  0.000
      -0.000 -0.000 -0.911 -0.412  0.000
       1.000  0.000 -0.000  0.000 -0.000
       0.000  0.000  0.000 -0.000  1.000
     occupation matrix ns (before diag.):
       0.940 -0.000 -0.000 -0.000  0.000
      -0.000  0.992 -0.000  0.000  0.000
      -0.000 -0.000  0.992  0.000  0.000
      -0.000  0.000  0.000  0.346 -0.000
       0.000  0.000  0.000 -0.000  0.996

     Number of occupied Hubbard levels =   36.9608

     HUBBARD ENERGY =    0.2243  (Ry)

     total cpu time spent up to now is       33.5 secs

     total energy              =   -1485.88088907 Ry
     estimated scf accuracy    <       2.99520662 Ry

     total magnetization       =     0.00 Bohr mag/cell
     absolute magnetization    =     3.88 Bohr mag/cell

     iteration #  4     ecut=    90.00 Ry     beta= 0.30
     Davidson diagonalization with overlap

---- Real-time Memory Report at c_bands before calling an iterative solver
           242 MiB given to the printing process from OS
           175 MiB allocation reported by mallinfo(arena+hblkhd)
        480627 MiB available memory on the node where the printing process lives
------------------
     ethr =  2.27E-03,  avg # of iterations =  2.0

     =================== HUBBARD OCCUPATIONS ===================
     ------------------------ ATOM    5 ------------------------
     Tr[ns(  5)] (up, down, total) =   4.92335  4.26990  9.19325
     Atomic magnetic moment for atom   5 =   0.65345
     SPIN  1
     eigenvalues:
       0.963  0.972  0.996  0.996  0.997
     eigenvectors (columns):
      -1.000 -0.000  0.000  0.000  0.000
      -0.000 -0.000 -0.406 -0.914  0.000
      -0.000 -0.000 -0.914  0.406  0.000
      -0.000  1.000 -0.000 -0.000 -0.000
       0.000  0.000  0.000  0.000  1.000
     occupation matrix ns (before diag.):
       0.963 -0.000 -0.000 -0.000  0.000
      -0.000  0.996 -0.000  0.000  0.000
      -0.000 -0.000  0.996  0.000  0.000
      -0.000  0.000  0.000  0.972 -0.000
       0.000  0.000  0.000 -0.000  0.997
     SPIN  2
     eigenvalues:
       0.359  0.933  0.991  0.991  0.996
     eigenvectors (columns):
       0.000 -1.000  0.000 -0.000  0.000
      -0.000 -0.000 -0.378  0.926  0.000
      -0.000 -0.000 -0.926 -0.378  0.000
       1.000  0.000 -0.000  0.000 -0.000
       0.000  0.000  0.000 -0.000  1.000
     occupation matrix ns (before diag.):
       0.933 -0.000 -0.000 -0.000  0.000
      -0.000  0.991 -0.000  0.000  0.000
      -0.000 -0.000  0.991  0.000  0.000
      -0.000  0.000  0.000  0.359 -0.000
       0.000  0.000  0.000 -0.000  0.996
     ------------------------ ATOM    6 ------------------------
     Tr[ns(  6)] (up, down, total) =   4.28650  4.92068  9.20718
     Atomic magnetic moment for atom   6 =  -0.63418
     SPIN  1
     eigenvalues:
       0.374  0.934  0.991  0.992  0.996
     eigenvectors (columns):
      -0.002 -1.000 -0.000  0.000  0.000
      -0.000 -0.000  1.000  0.000  0.000
      -0.000 -0.000  0.000 -1.000  0.000
       1.000 -0.002  0.000 -0.000 -0.000
       0.000  0.000 -0.000  0.000  1.000
     occupation matrix ns (before diag.):
       0.934 -0.000 -0.000  0.001  0.000
      -0.000  0.991 -0.000  0.000  0.000
      -0.000 -0.000  0.992  0.000  0.000
       0.001  0.000  0.000  0.374 -0.000
       0.000  0.000  0.000 -0.000  0.996
     SPIN  2
     eigenvalues:
       0.963  0.969  0.996  0.996  0.997
     eigenvectors (columns):
      -0.993 -0.120  0.000  0.000  0.000
      -0.000 -0.000 -1.000  0.000  0.000
      -0.000 -0.000 -0.000 -1.000  0.000
      -0.120  0.993 -0.000 -0.000 -0.000
       0.000  0.000  0.000  0.000  1.000
     occupation matrix ns (before diag.):
       0.963 -0.000 -0.000 -0.001  0.000
      -0.000  0.996 -0.000  0.000  0.000
      -0.000 -0.000  0.996  0.000  0.000
      -0.001  0.000  0.000  0.969 -0.000
       0.000  0.000  0.000 -0.000  0.997
     ------------------------ ATOM    7 ------------------------
     Tr[ns(  7)] (up, down, total) =   4.28650  4.92068  9.20718
     Atomic magnetic moment for atom   7 =  -0.63418
     SPIN  1
     eigenvalues:
       0.374  0.934  0.991  0.992  0.996
     eigenvectors (columns):
       0.002 -1.000  0.000 -0.000  0.000
      -0.000 -0.000 -0.000  1.000  0.000
      -0.000 -0.000 -1.000 -0.000  0.000
       1.000  0.002 -0.000  0.000 -0.000
       0.000  0.000  0.000 -0.000  1.000
     occupation matrix ns (before diag.):
       0.934 -0.000 -0.000 -0.001  0.000
      -0.000  0.992 -0.000  0.000  0.000
      -0.000 -0.000  0.991  0.000  0.000
      -0.001  0.000  0.000  0.374 -0.000
       0.000  0.000  0.000 -0.000  0.996
     SPIN  2
     eigenvalues:
       0.963  0.969  0.996  0.996  0.997
     eigenvectors (columns):
      -0.993  0.120  0.000  0.000  0.000
      -0.000 -0.000 -0.000 -1.000  0.000
      -0.000 -0.000 -1.000  0.000  0.000
       0.120  0.993 -0.000 -0.000 -0.000
       0.000  0.000  0.000  0.000  1.000
     occupation matrix ns (before diag.):
       0.963 -0.000 -0.000  0.001  0.000
      -0.000  0.996 -0.000  0.000  0.000
      -0.000 -0.000  0.996  0.000  0.000
       0.001  0.000  0.000  0.969 -0.000
       0.000  0.000  0.000 -0.000  0.997
     ------------------------ ATOM    8 ------------------------
     Tr[ns(  8)] (up, down, total) =   4.94341  4.41110  9.35451
     Atomic magnetic moment for atom   8 =   0.53230
     SPIN  1
     eigenvalues:
       0.971  0.982  0.997  0.997  0.998
     eigenvectors (columns):
      -1.000  0.000  0.000  0.000  0.000
      -0.000  0.000 -0.422 -0.906  0.000
      -0.000  0.000 -0.906  0.422  0.000
      -0.000 -1.000 -0.000 -0.000 -0.000
       0.000 -0.000  0.000  0.000  1.000
     occupation matrix ns (before diag.):
       0.971 -0.000 -0.000 -0.000  0.000
      -0.000  0.997 -0.000  0.000  0.000
      -0.000 -0.000  0.997  0.000  0.000
      -0.000  0.000  0.000  0.982 -0.000
       0.000  0.000  0.000 -0.000  0.998
     SPIN  2
     eigenvalues:
       0.479  0.947  0.994  0.994  0.997
     eigenvectors (columns):
       0.000 -1.000  0.000 -0.000  0.000
      -0.000 -0.000 -0.405  0.914  0.000
      -0.000 -0.000 -0.914 -0.405  0.000
       1.000  0.000 -0.000  0.000 -0.000
       0.000  0.000  0.000 -0.000  1.000
     occupation matrix ns (before diag.):
       0.947 -0.000 -0.000 -0.000  0.000
      -0.000  0.994 -0.000  0.000  0.000
      -0.000 -0.000  0.994  0.000  0.000
      -0.000  0.000  0.000  0.479 -0.000
       0.000  0.000  0.000 -0.000  0.997

     Number of occupied Hubbard levels =   36.9621

     HUBBARD ENERGY =    0.1706  (Ry)

     total cpu time spent up to now is       41.9 secs

     total energy              =   -1486.07308955 Ry
     estimated scf accuracy    <       0.36702834 Ry

     total magnetization       =     0.00 Bohr mag/cell
     absolute magnetization    =     3.27 Bohr mag/cell

     iteration #  5     ecut=    90.00 Ry     beta= 0.30
     Davidson diagonalization with overlap

---- Real-time Memory Report at c_bands before calling an iterative solver
           244 MiB given to the printing process from OS
           178 MiB allocation reported by mallinfo(arena+hblkhd)
        480748 MiB available memory on the node where the printing process lives
------------------
     ethr =  2.78E-04,  avg # of iterations =  2.6

     =================== HUBBARD OCCUPATIONS ===================
     ------------------------ ATOM    5 ------------------------
     Tr[ns(  5)] (up, down, total) =   4.92328  4.42985  9.35313
     Atomic magnetic moment for atom   5 =   0.49343
     SPIN  1
     eigenvalues:
       0.965  0.969  0.996  0.996  0.997
     eigenvectors (columns):
       1.000 -0.000  0.000  0.000  0.000
       0.000 -0.000 -0.389 -0.921  0.000
       0.000 -0.000 -0.921  0.389  0.000
       0.000  1.000 -0.000 -0.000 -0.000
      -0.000  0.000  0.000  0.000  1.000
     occupation matrix ns (before diag.):
       0.965 -0.000 -0.000 -0.000  0.000
      -0.000  0.996 -0.000  0.000  0.000
      -0.000 -0.000  0.996  0.000  0.000
      -0.000  0.000  0.000  0.969 -0.000
       0.000  0.000  0.000 -0.000  0.997
     SPIN  2
     eigenvalues:
       0.492  0.952  0.994  0.994  0.997
     eigenvectors (columns):
       0.000 -1.000  0.000 -0.000  0.000
      -0.000 -0.000 -0.405  0.914  0.000
      -0.000 -0.000 -0.914 -0.405  0.000
       1.000  0.000 -0.000  0.000 -0.000
       0.000  0.000  0.000 -0.000  1.000
     occupation matrix ns (before diag.):
       0.952 -0.000 -0.000 -0.000  0.000
      -0.000  0.994 -0.000  0.000  0.000
      -0.000 -0.000  0.994  0.000  0.000
      -0.000  0.000  0.000  0.492 -0.000
       0.000  0.000  0.000 -0.000  0.997
     ------------------------ ATOM    6 ------------------------
     Tr[ns(  6)] (up, down, total) =   4.41410  4.92206  9.33616
     Atomic magnetic moment for atom   6 =  -0.50796
     SPIN  1
     eigenvalues:
       0.478  0.951  0.994  0.994  0.997
     eigenvectors (columns):
       0.000 -1.000  0.000 -0.000  0.000
      -0.000 -0.000 -0.000  1.000  0.000
      -0.000 -0.000 -1.000 -0.000  0.000
       1.000  0.000 -0.000  0.000 -0.000
       0.000  0.000  0.000 -0.000  1.000
     occupation matrix ns (before diag.):
       0.951 -0.000 -0.000 -0.000  0.000
      -0.000  0.994 -0.000  0.000  0.000
      -0.000 -0.000  0.994  0.000  0.000
      -0.000  0.000  0.000  0.478 -0.000
       0.000  0.000  0.000 -0.000  0.997
     SPIN  2
     eigenvalues:
       0.964  0.969  0.996  0.996  0.997
     eigenvectors (columns):
      -0.999  0.033  0.000  0.000  0.000
      -0.000 -0.000 -0.000 -1.000  0.000
      -0.000 -0.000 -1.000  0.000  0.000
       0.033  0.999 -0.000 -0.000 -0.000
       0.000  0.000  0.000  0.000  1.000
     occupation matrix ns (before diag.):
       0.964 -0.000 -0.000  0.000  0.000
      -0.000  0.996 -0.000  0.000  0.000
      -0.000 -0.000  0.996  0.000  0.000
       0.000  0.000  0.000  0.969 -0.000
       0.000  0.000  0.000 -0.000  0.997
     ------------------------ ATOM    7 ------------------------
     Tr[ns(  7)] (up, down, total) =   4.41410  4.92206  9.33616
     Atomic magnetic moment for atom   7 =  -0.50796
     SPIN  1
     eigenvalues:
       0.478  0.951  0.994  0.994  0.997
     eigenvectors (columns):
      -0.000 -1.000 -0.000  0.000  0.000
      -0.000 -0.000  1.000  0.000  0.000
      -0.000 -0.000  0.000 -1.000  0.000
       1.000 -0.000  0.000 -0.000 -0.000
       0.000  0.000 -0.000  0.000  1.000
     occupation matrix ns (before diag.):
       0.951 -0.000 -0.000  0.000  0.000
      -0.000  0.994 -0.000  0.000  0.000
      -0.000 -0.000  0.994  0.000  0.000
       0.000  0.000  0.000  0.478 -0.000
       0.000  0.000  0.000 -0.000  0.997
     SPIN  2
     eigenvalues:
       0.964  0.969  0.996  0.996  0.997
     eigenvectors (columns):
      -0.999 -0.033  0.000  0.000  0.000
      -0.000 -0.000 -1.000  0.000  0.000
      -0.000 -0.000 -0.000 -1.000  0.000
      -0.033  0.999 -0.000 -0.000 -0.000
       0.000  0.000  0.000  0.000  1.000
     occupation matrix ns (before diag.):
       0.964 -0.000 -0.000 -0.000  0.000
      -0.000  0.996 -0.000  0.000  0.000
      -0.000 -0.000  0.996  0.000  0.000
      -0.000  0.000  0.000  0.969 -0.000
       0.000  0.000  0.000 -0.000  0.997
     ------------------------ ATOM    8 ------------------------
     Tr[ns(  8)] (up, down, total) =   4.89683  4.31480  9.21164
     Atomic magnetic moment for atom   8 =   0.58203
     SPIN  1
     eigenvalues:
       0.954  0.957  0.995  0.995  0.997
     eigenvectors (columns):
       0.000 -1.000 -0.000  0.000  0.000
      -0.000 -0.000  0.406 -0.914  0.000
      -0.000 -0.000  0.914  0.406  0.000
       1.000  0.000  0.000 -0.000 -0.000
       0.000  0.000 -0.000  0.000  1.000
     occupation matrix ns (before diag.):
       0.957 -0.000 -0.000 -0.000  0.000
      -0.000  0.995 -0.000  0.000  0.000
      -0.000 -0.000  0.995  0.000  0.000
      -0.000  0.000  0.000  0.954 -0.000
       0.000  0.000  0.000 -0.000  0.997
     SPIN  2
     eigenvalues:
       0.392  0.941  0.993  0.993  0.996
     eigenvectors (columns):
       0.000 -1.000  0.000 -0.000  0.000
      -0.000 -0.000 -0.455  0.890  0.000
      -0.000 -0.000 -0.890 -0.455  0.000
       1.000  0.000 -0.000  0.000 -0.000
       0.000  0.000  0.000  0.000  1.000
     occupation matrix ns (before diag.):
       0.941 -0.000 -0.000 -0.000  0.000
      -0.000  0.993 -0.000  0.000  0.000
      -0.000 -0.000  0.993  0.000  0.000
      -0.000  0.000  0.000  0.392 -0.000
       0.000  0.000  0.000 -0.000  0.996

     Number of occupied Hubbard levels =   37.2371

     HUBBARD ENERGY =    0.1643  (Ry)

     total cpu time spent up to now is       51.1 secs

     total energy              =   -1486.11112021 Ry
     estimated scf accuracy    <       0.09151542 Ry

     total magnetization       =    -0.00 Bohr mag/cell
     absolute magnetization    =     2.88 Bohr mag/cell

     iteration #  6     ecut=    90.00 Ry     beta= 0.30
     Davidson diagonalization with overlap

---- Real-time Memory Report at c_bands before calling an iterative solver
           247 MiB given to the printing process from OS
           180 MiB allocation reported by mallinfo(arena+hblkhd)
        480718 MiB available memory on the node where the printing process lives
------------------
     ethr =  6.93E-05,  avg # of iterations =  5.4

     =================== HUBBARD OCCUPATIONS ===================
     ------------------------ ATOM    5 ------------------------
     Tr[ns(  5)] (up, down, total) =   4.91212  4.41201  9.32412
     Atomic magnetic moment for atom   5 =   0.50011
     SPIN  1
     eigenvalues:
       0.961  0.962  0.996  0.996  0.997
     eigenvectors (columns):
       0.000 -1.000 -0.000  0.000  0.000
      -0.000 -0.000  0.391 -0.920  0.000
      -0.000 -0.000  0.920  0.391  0.000
       1.000  0.000  0.000 -0.000 -0.000
       0.000  0.000 -0.000  0.000  1.000
     occupation matrix ns (before diag.):
       0.962 -0.000 -0.000 -0.000  0.000
      -0.000  0.996 -0.000  0.000  0.000
      -0.000 -0.000  0.996  0.000  0.000
      -0.000  0.000  0.000  0.961 -0.000
       0.000  0.000  0.000 -0.000  0.997
     SPIN  2
     eigenvalues:
       0.473  0.953  0.995  0.995  0.997
     eigenvectors (columns):
       0.000 -1.000  0.000 -0.000  0.000
      -0.000 -0.000 -0.439  0.898  0.000
      -0.000 -0.000 -0.898 -0.439  0.000
       1.000  0.000 -0.000  0.000 -0.000
       0.000  0.000  0.000  0.000  1.000
     occupation matrix ns (before diag.):
       0.953 -0.000 -0.000 -0.000  0.000
      -0.000  0.995 -0.000  0.000  0.000
      -0.000 -0.000  0.995  0.000  0.000
      -0.000  0.000  0.000  0.473 -0.000
       0.000  0.000  0.000 -0.000  0.997
     ------------------------ ATOM    6 ------------------------
     Tr[ns(  6)] (up, down, total) =   4.41842  4.91158  9.33001
     Atomic magnetic moment for atom   6 =  -0.49316
     SPIN  1
     eigenvalues:
       0.479  0.953  0.995  0.995  0.997
     eigenvectors (columns):
      -0.000 -1.000 -0.000  0.000  0.000
      -0.000 -0.000  1.000  0.000  0.000
      -0.000 -0.000  0.000 -1.000  0.000
       1.000 -0.000  0.000 -0.000 -0.000
       0.000  0.000 -0.000  0.000  1.000
     occupation matrix ns (before diag.):
       0.953 -0.000 -0.000  0.000  0.000
      -0.000  0.995 -0.000  0.000  0.000
      -0.000 -0.000  0.995  0.000  0.000
       0.000  0.000  0.000  0.479 -0.000
       0.000  0.000  0.000 -0.000  0.997
     SPIN  2
     eigenvalues:
       0.961  0.963  0.996  0.996  0.997
     eigenvectors (columns):
      -0.033 -0.999  0.000 -0.000  0.000
      -0.000 -0.000 -1.000 -0.000  0.000
      -0.000 -0.000 -0.000  1.000  0.000
       0.999 -0.033 -0.000  0.000 -0.000
       0.000  0.000  0.000 -0.000  1.000
     occupation matrix ns (before diag.):
       0.963 -0.000 -0.000  0.000  0.000
      -0.000  0.996 -0.000  0.000  0.000
      -0.000 -0.000  0.996  0.000  0.000
       0.000  0.000  0.000  0.961 -0.000
       0.000  0.000  0.000 -0.000  0.997
     ------------------------ ATOM    7 ------------------------
     Tr[ns(  7)] (up, down, total) =   4.41842  4.91158  9.33001
     Atomic magnetic moment for atom   7 =  -0.49316
     SPIN  1
     eigenvalues:
       0.479  0.953  0.995  0.995  0.997
     eigenvectors (columns):
       0.000 -1.000  0.000 -0.000  0.000
      -0.000 -0.000 -0.000  1.000  0.000
      -0.000 -0.000 -1.000 -0.000  0.000
       1.000  0.000 -0.000  0.000 -0.000
       0.000  0.000  0.000 -0.000  1.000
     occupation matrix ns (before diag.):
       0.953 -0.000 -0.000 -0.000  0.000
      -0.000  0.995 -0.000  0.000  0.000
      -0.000 -0.000  0.995  0.000  0.000
      -0.000  0.000  0.000  0.479 -0.000
       0.000  0.000  0.000 -0.000  0.997
     SPIN  2
     eigenvalues:
       0.961  0.963  0.996  0.996  0.997
     eigenvectors (columns):
       0.033 -0.999 -0.000  0.000  0.000
      -0.000 -0.000  0.000 -1.000  0.000
      -0.000 -0.000  1.000  0.000  0.000
       0.999  0.033  0.000 -0.000 -0.000
       0.000  0.000 -0.000  0.000  1.000
     occupation matrix ns (before diag.):
       0.963 -0.000 -0.000 -0.000  0.000
      -0.000  0.996 -0.000  0.000  0.000
      -0.000 -0.000  0.996  0.000  0.000
      -0.000  0.000  0.000  0.961 -0.000
       0.000  0.000  0.000 -0.000  0.997
     ------------------------ ATOM    8 ------------------------
     Tr[ns(  8)] (up, down, total) =   4.91910  4.45223  9.37133
     Atomic magnetic moment for atom   8 =   0.46687
     SPIN  1
     eigenvalues:
       0.965  0.965  0.996  0.996  0.997
     eigenvectors (columns):
       1.000 -0.000  0.000  0.000  0.000
       0.000 -0.000 -0.405 -0.914  0.000
       0.000 -0.000 -0.914  0.405  0.000
       0.000  1.000 -0.000 -0.000 -0.000
      -0.000  0.000  0.000  0.000  1.000
     occupation matrix ns (before diag.):
       0.965 -0.000 -0.000 -0.000  0.000
      -0.000  0.996 -0.000  0.000  0.000
      -0.000 -0.000  0.996  0.000  0.000
      -0.000  0.000  0.000  0.965 -0.000
       0.000  0.000  0.000 -0.000  0.997
     SPIN  2
     eigenvalues:
       0.509  0.956  0.995  0.995  0.997
     eigenvectors (columns):
       0.000 -1.000  0.000 -0.000  0.000
      -0.000 -0.000 -0.452  0.892  0.000
      -0.000 -0.000 -0.892 -0.452  0.000
       1.000  0.000 -0.000  0.000 -0.000
       0.000  0.000  0.000  0.000  1.000
     occupation matrix ns (before diag.):
       0.956 -0.000 -0.000 -0.000  0.000
      -0.000  0.995 -0.000  0.000  0.000
      -0.000 -0.000  0.995  0.000  0.000
      -0.000  0.000  0.000  0.509 -0.000
       0.000  0.000  0.000 -0.000  0.997

     Number of occupied Hubbard levels =   37.3555

     HUBBARD ENERGY =    0.1671  (Ry)

     total cpu time spent up to now is       61.4 secs

     total energy              =   -1486.12607809 Ry
     estimated scf accuracy    <       0.02141281 Ry

     total magnetization       =    -0.00 Bohr mag/cell
     absolute magnetization    =     2.75 Bohr mag/cell

     iteration #  7     ecut=    90.00 Ry     beta= 0.30
     Davidson diagonalization with overlap

---- Real-time Memory Report at c_bands before calling an iterative solver
           249 MiB given to the printing process from OS
           182 MiB allocation reported by mallinfo(arena+hblkhd)
        480724 MiB available memory on the node where the printing process lives
------------------
     ethr =  1.62E-05,  avg # of iterations =  7.3

     =================== HUBBARD OCCUPATIONS ===================
     ------------------------ ATOM    5 ------------------------
     Tr[ns(  5)] (up, down, total) =   4.90713  4.43439  9.34152
     Atomic magnetic moment for atom   5 =   0.47274
     SPIN  1
     eigenvalues:
       0.958  0.962  0.995  0.995  0.997
     eigenvectors (columns):
       0.000 -1.000 -0.000  0.000  0.000
      -0.000 -0.000  0.403 -0.915  0.000
      -0.000 -0.000  0.915  0.403  0.000
       1.000  0.000  0.000 -0.000 -0.000
       0.000  0.000 -0.000  0.000  1.000
     occupation matrix ns (before diag.):
       0.962 -0.000 -0.000 -0.000  0.000
      -0.000  0.995 -0.000  0.000  0.000
      -0.000 -0.000  0.995  0.000  0.000
      -0.000  0.000  0.000  0.958 -0.000
       0.000  0.000  0.000 -0.000  0.997
     SPIN  2
     eigenvalues:
       0.494  0.954  0.995  0.995  0.997
     eigenvectors (columns):
       0.000 -1.000  0.000 -0.000  0.000
      -0.000 -0.000 -0.407  0.913  0.000
      -0.000 -0.000 -0.913 -0.407  0.000
       1.000  0.000 -0.000  0.000 -0.000
       0.000  0.000  0.000 -0.000  1.000
     occupation matrix ns (before diag.):
       0.954 -0.000 -0.000 -0.000  0.000
      -0.000  0.995 -0.000  0.000  0.000
      -0.000 -0.000  0.995  0.000  0.000
      -0.000  0.000  0.000  0.494 -0.000
       0.000  0.000  0.000 -0.000  0.997
     ------------------------ ATOM    6 ------------------------
     Tr[ns(  6)] (up, down, total) =   4.43330  4.90729  9.34059
     Atomic magnetic moment for atom   6 =  -0.47399
     SPIN  1
     eigenvalues:
       0.493  0.954  0.995  0.995  0.997
     eigenvectors (columns):
      -0.000 -1.000  0.000 -0.000  0.000
      -0.000 -0.000 -0.000  1.000  0.000
      -0.000 -0.000 -1.000 -0.000  0.000
       1.000 -0.000 -0.000  0.000 -0.000
       0.000  0.000  0.000 -0.000  1.000
     occupation matrix ns (before diag.):
       0.954 -0.000 -0.000  0.000  0.000
      -0.000  0.995 -0.000  0.000  0.000
      -0.000 -0.000  0.995  0.000  0.000
       0.000  0.000  0.000  0.493 -0.000
       0.000  0.000  0.000 -0.000  0.997
     SPIN  2
     eigenvalues:
       0.958  0.961  0.995  0.995  0.997
     eigenvectors (columns):
       0.024 -1.000  0.000 -0.000  0.000
      -0.000 -0.000 -1.000 -0.000  0.000
      -0.000 -0.000 -0.000  1.000  0.000
       1.000  0.024 -0.000  0.000 -0.000
       0.000  0.000  0.000 -0.000  1.000
     occupation matrix ns (before diag.):
       0.961 -0.000 -0.000 -0.000  0.000
      -0.000  0.995 -0.000  0.000  0.000
      -0.000 -0.000  0.995  0.000  0.000
      -0.000  0.000  0.000  0.958 -0.000
       0.000  0.000  0.000 -0.000  0.997
     ------------------------ ATOM    7 ------------------------
     Tr[ns(  7)] (up, down, total) =   4.43330  4.90729  9.34059
     Atomic magnetic moment for atom   7 =  -0.47399
     SPIN  1
     eigenvalues:
       0.493  0.954  0.995  0.995  0.997
     eigenvectors (columns):
       0.000 -1.000 -0.000  0.000  0.000
      -0.000 -0.000  1.000  0.000  0.000
      -0.000 -0.000  0.000 -1.000  0.000
       1.000  0.000  0.000 -0.000 -0.000
       0.000  0.000 -0.000  0.000  1.000
     occupation matrix ns (before diag.):
       0.954 -0.000 -0.000 -0.000  0.000
      -0.000  0.995 -0.000  0.000  0.000
      -0.000 -0.000  0.995  0.000  0.000
      -0.000  0.000  0.000  0.493 -0.000
       0.000  0.000  0.000 -0.000  0.997
     SPIN  2
     eigenvalues:
       0.958  0.961  0.995  0.995  0.997
     eigenvectors (columns):
      -0.024 -1.000 -0.000  0.000  0.000
      -0.000 -0.000  0.000 -1.000  0.000
      -0.000 -0.000  1.000  0.000  0.000
       1.000 -0.024  0.000 -0.000 -0.000
       0.000  0.000 -0.000  0.000  1.000
     occupation matrix ns (before diag.):
       0.961 -0.000 -0.000  0.000  0.000
      -0.000  0.995 -0.000  0.000  0.000
      -0.000 -0.000  0.995  0.000  0.000
       0.000  0.000  0.000  0.958 -0.000
       0.000  0.000  0.000 -0.000  0.997
     ------------------------ ATOM    8 ------------------------
     Tr[ns(  8)] (up, down, total) =   4.90532  4.42513  9.33045
     Atomic magnetic moment for atom   8 =   0.48019
     SPIN  1
     eigenvalues:
       0.957  0.961  0.995  0.995  0.997
     eigenvectors (columns):
       0.000 -1.000 -0.000  0.000  0.000
      -0.000 -0.000  0.400 -0.917  0.000
      -0.000 -0.000  0.917  0.400  0.000
       1.000  0.000  0.000 -0.000 -0.000
       0.000  0.000 -0.000  0.000  1.000
     occupation matrix ns (before diag.):
       0.961 -0.000 -0.000 -0.000  0.000
      -0.000  0.995 -0.000  0.000  0.000
      -0.000 -0.000  0.995  0.000  0.000
      -0.000  0.000  0.000  0.957 -0.000
       0.000  0.000  0.000 -0.000  0.997
     SPIN  2
     eigenvalues:
       0.486  0.953  0.995  0.995  0.997
     eigenvectors (columns):
       0.000 -1.000  0.000 -0.000  0.000
      -0.000 -0.000 -0.403  0.915  0.000
      -0.000 -0.000 -0.915 -0.403  0.000
       1.000  0.000 -0.000  0.000 -0.000
       0.000  0.000  0.000 -0.000  1.000
     occupation matrix ns (before diag.):
       0.953 -0.000 -0.000 -0.000  0.000
      -0.000  0.995 -0.000  0.000  0.000
      -0.000 -0.000  0.995  0.000  0.000
      -0.000  0.000  0.000  0.486 -0.000
       0.000  0.000  0.000 -0.000  0.997

     Number of occupied Hubbard levels =   37.3531

     HUBBARD ENERGY =    0.1752  (Ry)

     total cpu time spent up to now is       72.7 secs

     total energy              =   -1486.12991375 Ry
     estimated scf accuracy    <       0.00613834 Ry

     total magnetization       =     0.00 Bohr mag/cell
     absolute magnetization    =     2.68 Bohr mag/cell

     iteration #  8     ecut=    90.00 Ry     beta= 0.30
     Davidson diagonalization with overlap

---- Real-time Memory Report at c_bands before calling an iterative solver
           251 MiB given to the printing process from OS
           184 MiB allocation reported by mallinfo(arena+hblkhd)
        480813 MiB available memory on the node where the printing process lives
------------------
     ethr =  4.65E-06,  avg # of iterations =  6.0

     =================== HUBBARD OCCUPATIONS ===================
     ------------------------ ATOM    5 ------------------------
     Tr[ns(  5)] (up, down, total) =   4.90211  4.44488  9.34699
     Atomic magnetic moment for atom   5 =   0.45723
     SPIN  1
     eigenvalues:
       0.954  0.961  0.995  0.995  0.997
     eigenvectors (columns):
       0.000 -1.000 -0.000  0.000  0.000
      -0.000 -0.000  0.406 -0.914  0.000
      -0.000 -0.000  0.914  0.406  0.000
       1.000  0.000  0.000 -0.000 -0.000
       0.000  0.000 -0.000  0.000  1.000
     occupation matrix ns (before diag.):
       0.961 -0.000 -0.000 -0.000  0.000
      -0.000  0.995 -0.000  0.000  0.000
      -0.000 -0.000  0.995  0.000  0.000
      -0.000  0.000  0.000  0.954 -0.000
       0.000  0.000  0.000 -0.000  0.997
     SPIN  2
     eigenvalues:
       0.505  0.954  0.995  0.995  0.997
     eigenvectors (columns):
       0.000 -1.000  0.000 -0.000  0.000
      -0.000 -0.000 -0.436  0.900  0.000
      -0.000 -0.000 -0.900 -0.436  0.000
       1.000  0.000 -0.000  0.000 -0.000
       0.000  0.000  0.000  0.000  1.000
     occupation matrix ns (before diag.):
       0.954 -0.000 -0.000 -0.000  0.000
      -0.000  0.995 -0.000  0.000  0.000
      -0.000 -0.000  0.995  0.000  0.000
      -0.000  0.000  0.000  0.505 -0.000
       0.000  0.000  0.000 -0.000  0.997
     ------------------------ ATOM    6 ------------------------
     Tr[ns(  6)] (up, down, total) =   4.44283  4.90161  9.34444
     Atomic magnetic moment for atom   6 =  -0.45878
     SPIN  1
     eigenvalues:
       0.503  0.954  0.995  0.995  0.997
     eigenvectors (columns):
      -0.000 -1.000  0.000 -0.000  0.000
      -0.000 -0.000 -0.000  1.000  0.000
      -0.000 -0.000 -1.000 -0.000  0.000
       1.000 -0.000 -0.000  0.000 -0.000
       0.000  0.000  0.000 -0.000  1.000
     occupation matrix ns (before diag.):
       0.954 -0.000 -0.000  0.000  0.000
      -0.000  0.995 -0.000  0.000  0.000
      -0.000 -0.000  0.995  0.000  0.000
       0.000  0.000  0.000  0.503 -0.000
       0.000  0.000  0.000 -0.000  0.997
     SPIN  2
     eigenvalues:
       0.954  0.960  0.995  0.995  0.997
     eigenvectors (columns):
       0.005 -1.000 -0.000  0.000  0.000
      -0.000 -0.000  0.000 -1.000  0.000
      -0.000 -0.000  1.000  0.000  0.000
       1.000  0.005  0.000 -0.000 -0.000
       0.000  0.000 -0.000  0.000  1.000
     occupation matrix ns (before diag.):
       0.960 -0.000 -0.000 -0.000  0.000
      -0.000  0.995 -0.000  0.000  0.000
      -0.000 -0.000  0.995  0.000  0.000
      -0.000  0.000  0.000  0.954 -0.000
       0.000  0.000  0.000 -0.000  0.997
     ------------------------ ATOM    7 ------------------------
     Tr[ns(  7)] (up, down, total) =   4.44283  4.90161  9.34444
     Atomic magnetic moment for atom   7 =  -0.45878
     SPIN  1
     eigenvalues:
       0.503  0.954  0.995  0.995  0.997
     eigenvectors (columns):
       0.000 -1.000 -0.000  0.000  0.000
      -0.000 -0.000  1.000  0.000  0.000
      -0.000 -0.000  0.000 -1.000  0.000
       1.000  0.000  0.000 -0.000 -0.000
       0.000  0.000 -0.000  0.000  1.000
     occupation matrix ns (before diag.):
       0.954 -0.000 -0.000 -0.000  0.000
      -0.000  0.995 -0.000  0.000  0.000
      -0.000 -0.000  0.995  0.000  0.000
      -0.000  0.000  0.000  0.503 -0.000
       0.000  0.000  0.000 -0.000  0.997
     SPIN  2
     eigenvalues:
       0.954  0.960  0.995  0.995  0.997
     eigenvectors (columns):
      -0.005 -1.000  0.000 -0.000  0.000
      -0.000 -0.000 -1.000 -0.000  0.000
      -0.000 -0.000 -0.000  1.000  0.000
       1.000 -0.005 -0.000  0.000 -0.000
       0.000  0.000  0.000 -0.000  1.000
     occupation matrix ns (before diag.):
       0.960 -0.000 -0.000  0.000  0.000
      -0.000  0.995 -0.000  0.000  0.000
      -0.000 -0.000  0.995  0.000  0.000
       0.000  0.000  0.000  0.954 -0.000
       0.000  0.000  0.000 -0.000  0.997
     ------------------------ ATOM    8 ------------------------
     Tr[ns(  8)] (up, down, total) =   4.90086  4.43969  9.34055
     Atomic magnetic moment for atom   8 =   0.46117
     SPIN  1
     eigenvalues:
       0.953  0.960  0.995  0.995  0.997
     eigenvectors (columns):
       0.000 -1.000 -0.000  0.000  0.000
      -0.000 -0.000  0.377 -0.926  0.000
      -0.000 -0.000  0.926  0.377  0.000
       1.000  0.000  0.000 -0.000 -0.000
       0.000  0.000 -0.000  0.000  1.000
     occupation matrix ns (before diag.):
       0.960 -0.000 -0.000 -0.000  0.000
      -0.000  0.995 -0.000  0.000  0.000
      -0.000 -0.000  0.995  0.000  0.000
      -0.000  0.000  0.000  0.953 -0.000
       0.000  0.000  0.000 -0.000  0.997
     SPIN  2
     eigenvalues:
       0.500  0.953  0.994  0.994  0.997
     eigenvectors (columns):
       0.000  1.000  0.000 -0.000  0.000
      -0.000  0.000 -0.422  0.907  0.000
      -0.000  0.000 -0.907 -0.422  0.000
       1.000 -0.000 -0.000  0.000 -0.000
       0.000 -0.000  0.000  0.000  1.000
     occupation matrix ns (before diag.):
       0.953 -0.000 -0.000 -0.000  0.000
      -0.000  0.994 -0.000  0.000  0.000
      -0.000 -0.000  0.994  0.000  0.000
      -0.000  0.000  0.000  0.500 -0.000
       0.000  0.000  0.000 -0.000  0.997

     Number of occupied Hubbard levels =   37.3764

     HUBBARD ENERGY =    0.1853  (Ry)

     total cpu time spent up to now is       83.4 secs

     total energy              =   -1486.13142620 Ry
     estimated scf accuracy    <       0.00211610 Ry

     total magnetization       =     0.00 Bohr mag/cell
     absolute magnetization    =     2.60 Bohr mag/cell

     iteration #  9     ecut=    90.00 Ry     beta= 0.30
     Davidson diagonalization with overlap

---- Real-time Memory Report at c_bands before calling an iterative solver
           253 MiB given to the printing process from OS
           187 MiB allocation reported by mallinfo(arena+hblkhd)
        480709 MiB available memory on the node where the printing process lives
------------------
     ethr =  1.60E-06,  avg # of iterations =  5.4

     =================== HUBBARD OCCUPATIONS ===================
     ------------------------ ATOM    5 ------------------------
     Tr[ns(  5)] (up, down, total) =   4.89599  4.45627  9.35226
     Atomic magnetic moment for atom   5 =   0.43972
     SPIN  1
     eigenvalues:
       0.949  0.960  0.995  0.995  0.997
     eigenvectors (columns):
       0.000 -1.000 -0.000  0.000  0.000
      -0.000 -0.000  0.406 -0.914  0.000
      -0.000 -0.000  0.914  0.406  0.000
       1.000  0.000  0.000 -0.000 -0.000
       0.000  0.000 -0.000  0.000  1.000
     occupation matrix ns (before diag.):
       0.960 -0.000 -0.000 -0.000  0.000
      -0.000  0.995 -0.000  0.000  0.000
      -0.000 -0.000  0.995  0.000  0.000
      -0.000  0.000  0.000  0.949 -0.000
       0.000  0.000  0.000 -0.000  0.997
     SPIN  2
     eigenvalues:
       0.516  0.954  0.994  0.994  0.997
     eigenvectors (columns):
       0.000 -1.000  0.000 -0.000  0.000
      -0.000 -0.000 -0.393  0.919  0.000
      -0.000 -0.000 -0.919 -0.393  0.000
       1.000  0.000 -0.000  0.000 -0.000
       0.000  0.000  0.000 -0.000  1.000
     occupation matrix ns (before diag.):
       0.954 -0.000 -0.000 -0.000  0.000
      -0.000  0.994 -0.000  0.000  0.000
      -0.000 -0.000  0.994  0.000  0.000
      -0.000  0.000  0.000  0.516 -0.000
       0.000  0.000  0.000 -0.000  0.997
     ------------------------ ATOM    6 ------------------------
     Tr[ns(  6)] (up, down, total) =   4.45901  4.89696  9.35597
     Atomic magnetic moment for atom   6 =  -0.43795
     SPIN  1
     eigenvalues:
       0.519  0.954  0.995  0.995  0.997
     eigenvectors (columns):
      -0.000 -1.000 -0.000  0.000  0.000
      -0.000 -0.000  1.000  0.000  0.000
      -0.000 -0.000  0.000 -1.000  0.000
       1.000 -0.000  0.000 -0.000 -0.000
       0.000  0.000 -0.000  0.000  1.000
     occupation matrix ns (before diag.):
       0.954 -0.000 -0.000  0.000  0.000
      -0.000  0.995 -0.000  0.000  0.000
      -0.000 -0.000  0.995  0.000  0.000
       0.000  0.000  0.000  0.519 -0.000
       0.000  0.000  0.000 -0.000  0.997
     SPIN  2
     eigenvalues:
       0.949  0.960  0.995  0.995  0.997
     eigenvectors (columns):
      -0.000 -1.000  0.000 -0.000  0.000
      -0.000 -0.000 -1.000 -0.000  0.000
      -0.000 -0.000 -0.000  1.000  0.000
       1.000 -0.000 -0.000  0.000 -0.000
       0.000  0.000  0.000 -0.000  1.000
     occupation matrix ns (before diag.):
       0.960 -0.000 -0.000  0.000  0.000
      -0.000  0.995 -0.000  0.000  0.000
      -0.000 -0.000  0.995  0.000  0.000
       0.000  0.000  0.000  0.949 -0.000
       0.000  0.000  0.000 -0.000  0.997
     ------------------------ ATOM    7 ------------------------
     Tr[ns(  7)] (up, down, total) =   4.45901  4.89696  9.35597
     Atomic magnetic moment for atom   7 =  -0.43795
     SPIN  1
     eigenvalues:
       0.519  0.954  0.995  0.995  0.997
     eigenvectors (columns):
       0.000 -1.000  0.000 -0.000  0.000
      -0.000 -0.000 -0.000  1.000  0.000
      -0.000 -0.000 -1.000 -0.000  0.000
       1.000  0.000 -0.000  0.000 -0.000
       0.000  0.000  0.000 -0.000  1.000
     occupation matrix ns (before diag.):
       0.954 -0.000 -0.000 -0.000  0.000
      -0.000  0.995 -0.000  0.000  0.000
      -0.000 -0.000  0.995  0.000  0.000
      -0.000  0.000  0.000  0.519 -0.000
       0.000  0.000  0.000 -0.000  0.997
     SPIN  2
     eigenvalues:
       0.949  0.960  0.995  0.995  0.997
     eigenvectors (columns):
       0.000 -1.000 -0.000  0.000  0.000
      -0.000 -0.000  0.000 -1.000  0.000
      -0.000 -0.000  1.000  0.000  0.000
       1.000  0.000  0.000 -0.000 -0.000
       0.000  0.000 -0.000  0.000  1.000
     occupation matrix ns (before diag.):
       0.960 -0.000 -0.000 -0.000  0.000
      -0.000  0.995 -0.000  0.000  0.000
      -0.000 -0.000  0.995  0.000  0.000
      -0.000  0.000  0.000  0.949 -0.000
       0.000  0.000  0.000 -0.000  0.997
     ------------------------ ATOM    8 ------------------------
     Tr[ns(  8)] (up, down, total) =   4.89597  4.45653  9.35250
     Atomic magnetic moment for atom   8 =   0.43943
     SPIN  1
     eigenvalues:
       0.949  0.960  0.995  0.995  0.997
     eigenvectors (columns):
       0.000 -1.000 -0.000  0.000  0.000
      -0.000 -0.000  0.404 -0.915  0.000
      -0.000 -0.000  0.915  0.404  0.000
       1.000  0.000  0.000 -0.000 -0.000
       0.000  0.000 -0.000  0.000  1.000
     occupation matrix ns (before diag.):
       0.960 -0.000 -0.000 -0.000  0.000
      -0.000  0.995 -0.000  0.000  0.000
      -0.000 -0.000  0.995  0.000  0.000
      -0.000  0.000  0.000  0.949 -0.000
       0.000  0.000  0.000 -0.000  0.997
     SPIN  2
     eigenvalues:
       0.516  0.954  0.994  0.994  0.997
     eigenvectors (columns):
       0.000 -1.000  0.000 -0.000  0.000
      -0.000 -0.000 -0.390  0.921  0.000
      -0.000 -0.000 -0.921 -0.390  0.000
       1.000  0.000 -0.000  0.000 -0.000
       0.000  0.000  0.000 -0.000  1.000
     occupation matrix ns (before diag.):
       0.954 -0.000 -0.000 -0.000  0.000
      -0.000  0.994 -0.000  0.000  0.000
      -0.000 -0.000  0.994  0.000  0.000
      -0.000  0.000  0.000  0.516 -0.000
       0.000  0.000  0.000 -0.000  0.997

     Number of occupied Hubbard levels =   37.4167

     HUBBARD ENERGY =    0.1865  (Ry)

     total cpu time spent up to now is       94.3 secs

     total energy              =   -1486.13200493 Ry
     estimated scf accuracy    <       0.00032224 Ry

     total magnetization       =    -0.00 Bohr mag/cell
     absolute magnetization    =     2.51 Bohr mag/cell

     iteration # 10     ecut=    90.00 Ry     beta= 0.30
     Davidson diagonalization with overlap

---- Real-time Memory Report at c_bands before calling an iterative solver
           256 MiB given to the printing process from OS
           189 MiB allocation reported by mallinfo(arena+hblkhd)
        480697 MiB available memory on the node where the printing process lives
------------------
     ethr =  2.44E-07,  avg # of iterations =  2.3

     =================== HUBBARD OCCUPATIONS ===================
     ------------------------ ATOM    5 ------------------------
     Tr[ns(  5)] (up, down, total) =   4.89624  4.46075  9.35698
     Atomic magnetic moment for atom   5 =   0.43549
     SPIN  1
     eigenvalues:
       0.949  0.960  0.995  0.995  0.997
     eigenvectors (columns):
       0.000 -1.000 -0.000  0.000  0.000
      -0.000 -0.000  0.373 -0.928  0.000
      -0.000 -0.000  0.928  0.373  0.000
       1.000  0.000  0.000 -0.000 -0.000
       0.000  0.000 -0.000  0.000  1.000
     occupation matrix ns (before diag.):
       0.960 -0.000 -0.000 -0.000  0.000
      -0.000  0.995 -0.000  0.000  0.000
      -0.000 -0.000  0.995  0.000  0.000
      -0.000  0.000  0.000  0.949 -0.000
       0.000  0.000  0.000 -0.000  0.997
     SPIN  2
     eigenvalues:
       0.520  0.954  0.995  0.995  0.997
     eigenvectors (columns):
       0.000 -1.000  0.000 -0.000  0.000
      -0.000 -0.000 -0.406  0.914  0.000
      -0.000 -0.000 -0.914 -0.406  0.000
       1.000  0.000 -0.000  0.000 -0.000
       0.000  0.000  0.000 -0.000  1.000
     occupation matrix ns (before diag.):
       0.954 -0.000 -0.000 -0.000  0.000
      -0.000  0.995 -0.000  0.000  0.000
      -0.000 -0.000  0.995  0.000  0.000
      -0.000  0.000  0.000  0.520 -0.000
       0.000  0.000  0.000 -0.000  0.997
     ------------------------ ATOM    6 ------------------------
     Tr[ns(  6)] (up, down, total) =   4.45878  4.89551  9.35429
     Atomic magnetic moment for atom   6 =  -0.43673
     SPIN  1
     eigenvalues:
       0.519  0.954  0.994  0.994  0.997
     eigenvectors (columns):
      -0.000 -1.000  0.000 -0.000  0.000
      -0.000 -0.000 -0.000  1.000  0.000
      -0.000 -0.000 -1.000 -0.000  0.000
       1.000 -0.000 -0.000  0.000 -0.000
       0.000  0.000  0.000 -0.000  1.000
     occupation matrix ns (before diag.):
       0.954 -0.000 -0.000  0.000  0.000
      -0.000  0.994 -0.000  0.000  0.000
      -0.000 -0.000  0.994  0.000  0.000
       0.000  0.000  0.000  0.519 -0.000
       0.000  0.000  0.000 -0.000  0.997
     SPIN  2
     eigenvalues:
       0.948  0.960  0.995  0.995  0.997
     eigenvectors (columns):
       0.000 -1.000 -0.000  0.000  0.000
      -0.000 -0.000  0.000 -1.000  0.000
      -0.000 -0.000  1.000  0.000  0.000
       1.000  0.000  0.000 -0.000 -0.000
       0.000  0.000 -0.000  0.000  1.000
     occupation matrix ns (before diag.):
       0.960 -0.000 -0.000 -0.000  0.000
      -0.000  0.995 -0.000  0.000  0.000
      -0.000 -0.000  0.995  0.000  0.000
      -0.000  0.000  0.000  0.948 -0.000
       0.000  0.000  0.000 -0.000  0.997
     ------------------------ ATOM    7 ------------------------
     Tr[ns(  7)] (up, down, total) =   4.45878  4.89551  9.35429
     Atomic magnetic moment for atom   7 =  -0.43673
     SPIN  1
     eigenvalues:
       0.519  0.954  0.994  0.994  0.997
     eigenvectors (columns):
       0.000 -1.000 -0.000  0.000  0.000
      -0.000 -0.000  1.000  0.000  0.000
      -0.000 -0.000  0.000 -1.000  0.000
       1.000  0.000  0.000 -0.000 -0.000
       0.000  0.000 -0.000  0.000  1.000
     occupation matrix ns (before diag.):
       0.954 -0.000 -0.000 -0.000  0.000
      -0.000  0.994 -0.000  0.000  0.000
      -0.000 -0.000  0.994  0.000  0.000
      -0.000  0.000  0.000  0.519 -0.000
       0.000  0.000  0.000 -0.000  0.997
     SPIN  2
     eigenvalues:
       0.948  0.960  0.995  0.995  0.997
     eigenvectors (columns):
      -0.000 -1.000  0.000 -0.000  0.000
      -0.000 -0.000 -1.000 -0.000  0.000
      -0.000 -0.000 -0.000  1.000  0.000
       1.000 -0.000 -0.000  0.000 -0.000
       0.000  0.000  0.000 -0.000  1.000
     occupation matrix ns (before diag.):
       0.960 -0.000 -0.000  0.000  0.000
      -0.000  0.995 -0.000  0.000  0.000
      -0.000 -0.000  0.995  0.000  0.000
       0.000  0.000  0.000  0.948 -0.000
       0.000  0.000  0.000 -0.000  0.997
     ------------------------ ATOM    8 ------------------------
     Tr[ns(  8)] (up, down, total) =   4.89567  4.45890  9.35457
     Atomic magnetic moment for atom   8 =   0.43678
     SPIN  1
     eigenvalues:
       0.948  0.960  0.995  0.995  0.997
     eigenvectors (columns):
      -0.000 -1.000  0.000  0.000  0.000
       0.000 -0.000 -0.422 -0.907  0.000
       0.000 -0.000 -0.907  0.422  0.000
      -1.000  0.000 -0.000 -0.000 -0.000
      -0.000  0.000  0.000  0.000  1.000
     occupation matrix ns (before diag.):
       0.960 -0.000 -0.000 -0.000  0.000
      -0.000  0.995 -0.000  0.000  0.000
      -0.000 -0.000  0.995  0.000  0.000
      -0.000  0.000  0.000  0.948 -0.000
       0.000  0.000  0.000 -0.000  0.997
     SPIN  2
     eigenvalues:
       0.519  0.954  0.994  0.994  0.997
     eigenvectors (columns):
       0.000  1.000  0.000 -0.000  0.000
      -0.000  0.000 -0.422  0.907  0.000
      -0.000  0.000 -0.907 -0.422  0.000
       1.000 -0.000 -0.000  0.000 -0.000
       0.000 -0.000  0.000  0.000  1.000
     occupation matrix ns (before diag.):
       0.954 -0.000 -0.000 -0.000  0.000
      -0.000  0.994 -0.000  0.000  0.000
      -0.000 -0.000  0.994  0.000  0.000
      -0.000  0.000  0.000  0.519 -0.000
       0.000  0.000  0.000 -0.000  0.997

     Number of occupied Hubbard levels =   37.4201

     HUBBARD ENERGY =    0.1926  (Ry)

     total cpu time spent up to now is      103.2 secs

     total energy              =   -1486.13216470 Ry
     estimated scf accuracy    <       0.00021114 Ry

     total magnetization       =     0.00 Bohr mag/cell
     absolute magnetization    =     2.50 Bohr mag/cell

     iteration # 11     ecut=    90.00 Ry     beta= 0.30
     Davidson diagonalization with overlap

---- Real-time Memory Report at c_bands before calling an iterative solver
           256 MiB given to the printing process from OS
           189 MiB allocation reported by mallinfo(arena+hblkhd)
        480724 MiB available memory on the node where the printing process lives
------------------
     ethr =  1.60E-07,  avg # of iterations =  3.6

     =================== HUBBARD OCCUPATIONS ===================
     ------------------------ ATOM    5 ------------------------
     Tr[ns(  5)] (up, down, total) =   4.89083  4.46935  9.36018
     Atomic magnetic moment for atom   5 =   0.42149
     SPIN  1
     eigenvalues:
       0.944  0.959  0.995  0.995  0.997
     eigenvectors (columns):
       0.000 -1.000  0.000 -0.000  0.000
      -0.000 -0.000 -0.428  0.904  0.000
      -0.000 -0.000 -0.904 -0.428  0.000
       1.000  0.000 -0.000  0.000 -0.000
       0.000  0.000  0.000  0.000  1.000
     occupation matrix ns (before diag.):
       0.959 -0.000 -0.000 -0.000  0.000
      -0.000  0.995 -0.000  0.000  0.000
      -0.000 -0.000  0.995  0.000  0.000
      -0.000  0.000  0.000  0.944 -0.000
       0.000  0.000  0.000 -0.000  0.997
     SPIN  2
     eigenvalues:
       0.529  0.954  0.994  0.994  0.997
     eigenvectors (columns):
       0.000 -1.000  0.000 -0.000  0.000
      -0.000 -0.000 -0.434  0.901  0.000
      -0.000 -0.000 -0.901 -0.434  0.000
       1.000  0.000 -0.000  0.000 -0.000
       0.000  0.000  0.000  0.000  1.000
     occupation matrix ns (before diag.):
       0.954 -0.000 -0.000 -0.000  0.000
      -0.000  0.994 -0.000  0.000  0.000
      -0.000 -0.000  0.994  0.000  0.000
      -0.000  0.000  0.000  0.529 -0.000
       0.000  0.000  0.000 -0.000  0.997
     ------------------------ ATOM    6 ------------------------
     Tr[ns(  6)] (up, down, total) =   4.46969  4.89118  9.36087
     Atomic magnetic moment for atom   6 =  -0.42149
     SPIN  1
     eigenvalues:
       0.530  0.954  0.994  0.994  0.997
     eigenvectors (columns):
       0.000 -1.000 -0.000  0.000  0.000
      -0.000 -0.000  1.000  0.000  0.000
      -0.000 -0.000  0.000 -1.000  0.000
       1.000  0.000  0.000 -0.000 -0.000
       0.000  0.000 -0.000  0.000  1.000
     occupation matrix ns (before diag.):
       0.954 -0.000 -0.000 -0.000  0.000
      -0.000  0.994 -0.000  0.000  0.000
      -0.000 -0.000  0.994  0.000  0.000
      -0.000  0.000  0.000  0.530 -0.000
       0.000  0.000  0.000 -0.000  0.997
     SPIN  2
     eigenvalues:
       0.944  0.959  0.995  0.995  0.997
     eigenvectors (columns):
       0.001 -1.000 -0.000  0.000  0.000
      -0.000 -0.000  1.000  0.000  0.000
      -0.000 -0.000  0.000 -1.000  0.000
       1.000  0.001  0.000 -0.000 -0.000
       0.000  0.000 -0.000  0.000  1.000
     occupation matrix ns (before diag.):
       0.959 -0.000 -0.000 -0.000  0.000
      -0.000  0.995 -0.000  0.000  0.000
      -0.000 -0.000  0.995  0.000  0.000
      -0.000  0.000  0.000  0.944 -0.000
       0.000  0.000  0.000 -0.000  0.997
     ------------------------ ATOM    7 ------------------------
     Tr[ns(  7)] (up, down, total) =   4.46969  4.89118  9.36087
     Atomic magnetic moment for atom   7 =  -0.42149
     SPIN  1
     eigenvalues:
       0.530  0.954  0.994  0.994  0.997
     eigenvectors (columns):
      -0.000 -1.000  0.000 -0.000  0.000
      -0.000 -0.000 -0.000  1.000  0.000
      -0.000 -0.000 -1.000 -0.000  0.000
       1.000 -0.000 -0.000  0.000 -0.000
       0.000  0.000  0.000 -0.000  1.000
     occupation matrix ns (before diag.):
       0.954 -0.000 -0.000  0.000  0.000
      -0.000  0.994 -0.000  0.000  0.000
      -0.000 -0.000  0.994  0.000  0.000
       0.000  0.000  0.000  0.530 -0.000
       0.000  0.000  0.000 -0.000  0.997
     SPIN  2
     eigenvalues:
       0.944  0.959  0.995  0.995  0.997
     eigenvectors (columns):
      -0.001 -1.000  0.000 -0.000  0.000
      -0.000 -0.000 -0.000  1.000  0.000
      -0.000 -0.000 -1.000 -0.000  0.000
       1.000 -0.001 -0.000  0.000 -0.000
       0.000  0.000  0.000 -0.000  1.000
     occupation matrix ns (before diag.):
       0.959 -0.000 -0.000  0.000  0.000
      -0.000  0.995 -0.000  0.000  0.000
      -0.000 -0.000  0.995  0.000  0.000
       0.000  0.000  0.000  0.944 -0.000
       0.000  0.000  0.000 -0.000  0.997
     ------------------------ ATOM    8 ------------------------
     Tr[ns(  8)] (up, down, total) =   4.89121  4.46933  9.36054
     Atomic magnetic moment for atom   8 =   0.42189
     SPIN  1
     eigenvalues:
       0.944  0.959  0.995  0.995  0.997
     eigenvectors (columns):
       0.000 -1.000  0.000 -0.000  0.000
      -0.000 -0.000 -0.407  0.913  0.000
      -0.000 -0.000 -0.913 -0.407  0.000
       1.000  0.000 -0.000  0.000 -0.000
       0.000  0.000  0.000 -0.000  1.000
     occupation matrix ns (before diag.):
       0.959 -0.000 -0.000 -0.000  0.000
      -0.000  0.995 -0.000  0.000  0.000
      -0.000 -0.000  0.995  0.000  0.000
      -0.000  0.000  0.000  0.944 -0.000
       0.000  0.000  0.000 -0.000  0.997
     SPIN  2
     eigenvalues:
       0.529  0.954  0.994  0.994  0.997
     eigenvectors (columns):
       0.000  1.000  0.000 -0.000  0.000
      -0.000  0.000 -0.422  0.907  0.000
      -0.000  0.000 -0.907 -0.422  0.000
       1.000 -0.000 -0.000  0.000 -0.000
       0.000 -0.000  0.000  0.000  1.000
     occupation matrix ns (before diag.):
       0.954 -0.000 -0.000 -0.000  0.000
      -0.000  0.994 -0.000  0.000  0.000
      -0.000 -0.000  0.994  0.000  0.000
      -0.000  0.000  0.000  0.529 -0.000
       0.000  0.000  0.000 -0.000  0.997

     Number of occupied Hubbard levels =   37.4425

     HUBBARD ENERGY =    0.1932  (Ry)

     total cpu time spent up to now is      114.2 secs

     total energy              =   -1486.13238309 Ry
     estimated scf accuracy    <       0.00008917 Ry

     total magnetization       =    -0.00 Bohr mag/cell
     absolute magnetization    =     2.41 Bohr mag/cell

     iteration # 12     ecut=    90.00 Ry     beta= 0.30
     Davidson diagonalization with overlap

---- Real-time Memory Report at c_bands before calling an iterative solver
           256 MiB given to the printing process from OS
           189 MiB allocation reported by mallinfo(arena+hblkhd)
        480674 MiB available memory on the node where the printing process lives
------------------
     ethr =  6.76E-08,  avg # of iterations =  2.0

     =================== HUBBARD OCCUPATIONS ===================
     ------------------------ ATOM    5 ------------------------
     Tr[ns(  5)] (up, down, total) =   4.89004  4.47268  9.36271
     Atomic magnetic moment for atom   5 =   0.41736
     SPIN  1
     eigenvalues:
       0.943  0.959  0.995  0.995  0.997
     eigenvectors (columns):
       0.000 -1.000  0.000 -0.000  0.000
      -0.000 -0.000 -0.394  0.919  0.000
      -0.000 -0.000 -0.919 -0.394  0.000
       1.000  0.000 -0.000  0.000 -0.000
       0.000  0.000  0.000 -0.000  1.000
     occupation matrix ns (before diag.):
       0.959 -0.000 -0.000 -0.000  0.000
      -0.000  0.995 -0.000  0.000  0.000
      -0.000 -0.000  0.995  0.000  0.000
      -0.000  0.000  0.000  0.943 -0.000
       0.000  0.000  0.000 -0.000  0.997
     SPIN  2
     eigenvalues:
       0.533  0.954  0.994  0.994  0.997
     eigenvectors (columns):
       0.000 -1.000  0.000 -0.000  0.000
      -0.000 -0.000 -0.489  0.872  0.000
      -0.000 -0.000 -0.872 -0.489  0.000
       1.000  0.000 -0.000  0.000 -0.000
       0.000  0.000  0.000  0.000  1.000
     occupation matrix ns (before diag.):
       0.954 -0.000 -0.000 -0.000  0.000
      -0.000  0.994 -0.000  0.000  0.000
      -0.000 -0.000  0.994  0.000  0.000
      -0.000  0.000  0.000  0.533 -0.000
       0.000  0.000  0.000 -0.000  0.997
     ------------------------ ATOM    6 ------------------------
     Tr[ns(  6)] (up, down, total) =   4.47250  4.88998  9.36248
     Atomic magnetic moment for atom   6 =  -0.41748
     SPIN  1
     eigenvalues:
       0.532  0.954  0.994  0.994  0.997
     eigenvectors (columns):
       0.000 -1.000  0.000 -0.000  0.000
      -0.000 -0.000 -0.000  1.000  0.000
      -0.000 -0.000 -1.000 -0.000  0.000
       1.000  0.000 -0.000  0.000 -0.000
       0.000  0.000  0.000 -0.000  1.000
     occupation matrix ns (before diag.):
       0.954 -0.000 -0.000 -0.000  0.000
      -0.000  0.994 -0.000  0.000  0.000
      -0.000 -0.000  0.994  0.000  0.000
      -0.000  0.000  0.000  0.532 -0.000
       0.000  0.000  0.000 -0.000  0.997
     SPIN  2
     eigenvalues:
       0.943  0.959  0.995  0.995  0.997
     eigenvectors (columns):
      -0.000 -1.000  0.000 -0.000  0.000
      -0.000 -0.000 -0.000  1.000  0.000
      -0.000 -0.000 -1.000 -0.000  0.000
       1.000 -0.000 -0.000  0.000 -0.000
       0.000  0.000  0.000 -0.000  1.000
     occupation matrix ns (before diag.):
       0.959 -0.000 -0.000  0.000  0.000
      -0.000  0.995 -0.000  0.000  0.000
      -0.000 -0.000  0.995  0.000  0.000
       0.000  0.000  0.000  0.943 -0.000
       0.000  0.000  0.000 -0.000  0.997
     ------------------------ ATOM    7 ------------------------
     Tr[ns(  7)] (up, down, total) =   4.47250  4.88998  9.36248
     Atomic magnetic moment for atom   7 =  -0.41748
     SPIN  1
     eigenvalues:
       0.532  0.954  0.994  0.994  0.997
     eigenvectors (columns):
      -0.000 -1.000 -0.000  0.000  0.000
      -0.000 -0.000  1.000  0.000  0.000
      -0.000 -0.000  0.000 -1.000  0.000
       1.000 -0.000  0.000 -0.000 -0.000
       0.000  0.000 -0.000  0.000  1.000
     occupation matrix ns (before diag.):
       0.954 -0.000 -0.000  0.000  0.000
      -0.000  0.994 -0.000  0.000  0.000
      -0.000 -0.000  0.994  0.000  0.000
       0.000  0.000  0.000  0.532 -0.000
       0.000  0.000  0.000 -0.000  0.997
     SPIN  2
     eigenvalues:
       0.943  0.959  0.995  0.995  0.997
     eigenvectors (columns):
       0.000 -1.000 -0.000  0.000  0.000
      -0.000 -0.000  1.000  0.000  0.000
      -0.000 -0.000  0.000 -1.000  0.000
       1.000  0.000  0.000 -0.000 -0.000
       0.000  0.000 -0.000  0.000  1.000
     occupation matrix ns (before diag.):
       0.959 -0.000 -0.000 -0.000  0.000
      -0.000  0.995 -0.000  0.000  0.000
      -0.000 -0.000  0.995  0.000  0.000
      -0.000  0.000  0.000  0.943 -0.000
       0.000  0.000  0.000 -0.000  0.997
     ------------------------ ATOM    8 ------------------------
     Tr[ns(  8)] (up, down, total) =   4.88987  4.47227  9.36214
     Atomic magnetic moment for atom   8 =   0.41760
     SPIN  1
     eigenvalues:
       0.943  0.959  0.995  0.995  0.997
     eigenvectors (columns):
       0.000 -1.000  0.000 -0.000  0.000
      -0.000 -0.000 -0.403  0.915  0.000
      -0.000 -0.000 -0.915 -0.403  0.000
       1.000  0.000 -0.000  0.000 -0.000
       0.000  0.000  0.000 -0.000  1.000
     occupation matrix ns (before diag.):
       0.959 -0.000 -0.000 -0.000  0.000
      -0.000  0.995 -0.000  0.000  0.000
      -0.000 -0.000  0.995  0.000  0.000
      -0.000  0.000  0.000  0.943 -0.000
       0.000  0.000  0.000 -0.000  0.997
     SPIN  2
     eigenvalues:
       0.532  0.954  0.994  0.994  0.997
     eigenvectors (columns):
       0.000 -1.000  0.000 -0.000  0.000
      -0.000 -0.000 -0.404  0.915  0.000
      -0.000 -0.000 -0.915 -0.404  0.000
       1.000  0.000 -0.000  0.000 -0.000
       0.000  0.000  0.000 -0.000  1.000
     occupation matrix ns (before diag.):
       0.954 -0.000 -0.000 -0.000  0.000
      -0.000  0.994 -0.000  0.000  0.000
      -0.000 -0.000  0.994  0.000  0.000
      -0.000  0.000  0.000  0.532 -0.000
       0.000  0.000  0.000 -0.000  0.997

     Number of occupied Hubbard levels =   37.4498

     HUBBARD ENERGY =    0.1942  (Ry)

     total cpu time spent up to now is      123.0 secs

     total energy              =   -1486.13239797 Ry
     estimated scf accuracy    <       0.00000972 Ry

     total magnetization       =    -0.00 Bohr mag/cell
     absolute magnetization    =     2.39 Bohr mag/cell

     iteration # 13     ecut=    90.00 Ry     beta= 0.30
     Davidson diagonalization with overlap

---- Real-time Memory Report at c_bands before calling an iterative solver
           256 MiB given to the printing process from OS
           189 MiB allocation reported by mallinfo(arena+hblkhd)
        480671 MiB available memory on the node where the printing process lives
------------------
     ethr =  7.37E-09,  avg # of iterations =  4.1

     =================== HUBBARD OCCUPATIONS ===================
     ------------------------ ATOM    5 ------------------------
     Tr[ns(  5)] (up, down, total) =   4.88798  4.47473  9.36271
     Atomic magnetic moment for atom   5 =   0.41325
     SPIN  1
     eigenvalues:
       0.942  0.959  0.995  0.995  0.997
     eigenvectors (columns):
       0.000 -1.000  0.000 -0.000  0.000
      -0.000 -0.000 -0.386  0.922  0.000
      -0.000 -0.000 -0.922 -0.386  0.000
       1.000  0.000 -0.000  0.000 -0.000
       0.000  0.000  0.000 -0.000  1.000
     occupation matrix ns (before diag.):
       0.959 -0.000 -0.000 -0.000  0.000
      -0.000  0.995 -0.000  0.000  0.000
      -0.000 -0.000  0.995  0.000  0.000
      -0.000  0.000  0.000  0.942 -0.000
       0.000  0.000  0.000 -0.000  0.997
     SPIN  2
     eigenvalues:
       0.535  0.954  0.994  0.994  0.997
     eigenvectors (columns):
       0.000 -1.000  0.000 -0.000  0.000
      -0.000 -0.000 -0.407  0.913  0.000
      -0.000 -0.000 -0.913 -0.407  0.000
       1.000  0.000 -0.000  0.000 -0.000
       0.000  0.000  0.000 -0.000  1.000
     occupation matrix ns (before diag.):
       0.954 -0.000 -0.000 -0.000  0.000
      -0.000  0.994 -0.000  0.000  0.000
      -0.000 -0.000  0.994  0.000  0.000
      -0.000  0.000  0.000  0.535 -0.000
       0.000  0.000  0.000 -0.000  0.997
     ------------------------ ATOM    6 ------------------------
     Tr[ns(  6)] (up, down, total) =   4.47534  4.88825  9.36358
     Atomic magnetic moment for atom   6 =  -0.41291
     SPIN  1
     eigenvalues:
       0.535  0.954  0.994  0.994  0.997
     eigenvectors (columns):
       0.000 -1.000 -0.000  0.000  0.000
      -0.000 -0.000  1.000  0.000  0.000
      -0.000 -0.000  0.000 -1.000  0.000
       1.000  0.000  0.000 -0.000 -0.000
       0.000  0.000 -0.000  0.000  1.000
     occupation matrix ns (before diag.):
       0.954 -0.000 -0.000 -0.000  0.000
      -0.000  0.994 -0.000  0.000  0.000
      -0.000 -0.000  0.994  0.000  0.000
      -0.000  0.000  0.000  0.535 -0.000
       0.000  0.000  0.000 -0.000  0.997
     SPIN  2
     eigenvalues:
       0.942  0.959  0.995  0.995  0.997
     eigenvectors (columns):
      -0.000 -1.000 -0.000  0.000  0.000
      -0.000 -0.000  1.000  0.000  0.000
      -0.000 -0.000  0.000 -1.000  0.000
       1.000 -0.000  0.000 -0.000 -0.000
       0.000  0.000 -0.000  0.000  1.000
     occupation matrix ns (before diag.):
       0.959 -0.000 -0.000  0.000  0.000
      -0.000  0.995 -0.000  0.000  0.000
      -0.000 -0.000  0.995  0.000  0.000
       0.000  0.000  0.000  0.942 -0.000
       0.000  0.000  0.000 -0.000  0.997
     ------------------------ ATOM    7 ------------------------
     Tr[ns(  7)] (up, down, total) =   4.47534  4.88825  9.36358
     Atomic magnetic moment for atom   7 =  -0.41291
     SPIN  1
     eigenvalues:
       0.535  0.954  0.994  0.994  0.997
     eigenvectors (columns):
      -0.000 -1.000  0.000 -0.000  0.000
      -0.000 -0.000 -0.000  1.000  0.000
      -0.000 -0.000 -1.000 -0.000  0.000
       1.000 -0.000 -0.000  0.000 -0.000
       0.000  0.000  0.000 -0.000  1.000
     occupation matrix ns (before diag.):
       0.954 -0.000 -0.000  0.000  0.000
      -0.000  0.994 -0.000  0.000  0.000
      -0.000 -0.000  0.994  0.000  0.000
       0.000  0.000  0.000  0.535 -0.000
       0.000  0.000  0.000 -0.000  0.997
     SPIN  2
     eigenvalues:
       0.942  0.959  0.995  0.995  0.997
     eigenvectors (columns):
       0.000 -1.000  0.000 -0.000  0.000
      -0.000 -0.000 -0.000  1.000  0.000
      -0.000 -0.000 -1.000 -0.000  0.000
       1.000  0.000 -0.000  0.000 -0.000
       0.000  0.000  0.000 -0.000  1.000
     occupation matrix ns (before diag.):
       0.959 -0.000 -0.000 -0.000  0.000
      -0.000  0.995 -0.000  0.000  0.000
      -0.000 -0.000  0.995  0.000  0.000
      -0.000  0.000  0.000  0.942 -0.000
       0.000  0.000  0.000 -0.000  0.997
     ------------------------ ATOM    8 ------------------------
     Tr[ns(  8)] (up, down, total) =   4.88855  4.47610  9.36464
     Atomic magnetic moment for atom   8 =   0.41245
     SPIN  1
     eigenvalues:
       0.942  0.959  0.995  0.995  0.997
     eigenvectors (columns):
       0.000 -1.000  0.000 -0.000  0.000
      -0.000 -0.000 -0.384  0.923  0.000
      -0.000 -0.000 -0.923 -0.384  0.000
       1.000  0.000 -0.000  0.000 -0.000
       0.000  0.000  0.000 -0.000  1.000
     occupation matrix ns (before diag.):
       0.959 -0.000 -0.000 -0.000  0.000
      -0.000  0.995 -0.000  0.000  0.000
      -0.000 -0.000  0.995  0.000  0.000
      -0.000  0.000  0.000  0.942 -0.000
       0.000  0.000  0.000 -0.000  0.997
     SPIN  2
     eigenvalues:
       0.536  0.954  0.994  0.994  0.997
     eigenvectors (columns):
       0.000 -1.000  0.000 -0.000  0.000
      -0.000 -0.000 -0.408  0.913  0.000
      -0.000 -0.000 -0.913 -0.408  0.000
       1.000  0.000 -0.000  0.000 -0.000
       0.000  0.000  0.000 -0.000  1.000
     occupation matrix ns (before diag.):
       0.954 -0.000 -0.000 -0.000  0.000
      -0.000  0.994 -0.000  0.000  0.000
      -0.000 -0.000  0.994  0.000  0.000
      -0.000  0.000  0.000  0.536 -0.000
       0.000  0.000  0.000 -0.000  0.997

     Number of occupied Hubbard levels =   37.4545

     HUBBARD ENERGY =    0.1941  (Ry)

     total cpu time spent up to now is      133.7 secs

     total energy              =   -1486.13241788 Ry
     estimated scf accuracy    <       0.00001235 Ry

     total magnetization       =    -0.00 Bohr mag/cell
     absolute magnetization    =     2.36 Bohr mag/cell

     iteration # 14     ecut=    90.00 Ry     beta= 0.30
     Davidson diagonalization with overlap

---- Real-time Memory Report at c_bands before calling an iterative solver
           256 MiB given to the printing process from OS
           189 MiB allocation reported by mallinfo(arena+hblkhd)
        480668 MiB available memory on the node where the printing process lives
------------------
     ethr =  7.37E-09,  avg # of iterations =  2.0

     =================== HUBBARD OCCUPATIONS ===================
     ------------------------ ATOM    5 ------------------------
     Tr[ns(  5)] (up, down, total) =   4.88863  4.47485  9.36347
     Atomic magnetic moment for atom   5 =   0.41378
     SPIN  1
     eigenvalues:
       0.942  0.959  0.995  0.995  0.997
     eigenvectors (columns):
       0.000 -1.000  0.000 -0.000  0.000
      -0.000 -0.000 -0.384  0.923  0.000
      -0.000 -0.000 -0.923 -0.384  0.000
       1.000  0.000 -0.000  0.000 -0.000
       0.000  0.000  0.000 -0.000  1.000
     occupation matrix ns (before diag.):
       0.959 -0.000 -0.000 -0.000  0.000
      -0.000  0.995 -0.000  0.000  0.000
      -0.000 -0.000  0.995  0.000  0.000
      -0.000  0.000  0.000  0.942 -0.000
       0.000  0.000  0.000 -0.000  0.997
     SPIN  2
     eigenvalues:
       0.535  0.954  0.994  0.994  0.997
     eigenvectors (columns):
       0.000 -1.000  0.000 -0.000  0.000
      -0.000 -0.000 -0.382  0.924  0.000
      -0.000 -0.000 -0.924 -0.382  0.000
       1.000  0.000 -0.000  0.000 -0.000
       0.000  0.000  0.000 -0.000  1.000
     occupation matrix ns (before diag.):
       0.954 -0.000 -0.000 -0.000  0.000
      -0.000  0.994 -0.000  0.000  0.000
      -0.000 -0.000  0.994  0.000  0.000
      -0.000  0.000  0.000  0.535 -0.000
       0.000  0.000  0.000 -0.000  0.997
     ------------------------ ATOM    6 ------------------------
     Tr[ns(  6)] (up, down, total) =   4.47493  4.88868  9.36360
     Atomic magnetic moment for atom   6 =  -0.41375
     SPIN  1
     eigenvalues:
       0.535  0.954  0.994  0.994  0.997
     eigenvectors (columns):
       0.000 -1.000  0.000 -0.000  0.000
      -0.000 -0.000 -0.000  1.000  0.000
      -0.000 -0.000 -1.000 -0.000  0.000
       1.000  0.000 -0.000  0.000 -0.000
       0.000  0.000  0.000 -0.000  1.000
     occupation matrix ns (before diag.):
       0.954 -0.000 -0.000 -0.000  0.000
      -0.000  0.994 -0.000  0.000  0.000
      -0.000 -0.000  0.994  0.000  0.000
      -0.000  0.000  0.000  0.535 -0.000
       0.000  0.000  0.000 -0.000  0.997
     SPIN  2
     eigenvalues:
       0.942  0.959  0.995  0.995  0.997
     eigenvectors (columns):
      -0.000 -1.000  0.000 -0.000  0.000
      -0.000 -0.000 -0.000  1.000  0.000
      -0.000 -0.000 -1.000 -0.000  0.000
       1.000 -0.000 -0.000  0.000 -0.000
       0.000  0.000  0.000 -0.000  1.000
     occupation matrix ns (before diag.):
       0.959 -0.000 -0.000  0.000  0.000
      -0.000  0.995 -0.000  0.000  0.000
      -0.000 -0.000  0.995  0.000  0.000
       0.000  0.000  0.000  0.942 -0.000
       0.000  0.000  0.000 -0.000  0.997
     ------------------------ ATOM    7 ------------------------
     Tr[ns(  7)] (up, down, total) =   4.47493  4.88868  9.36360
     Atomic magnetic moment for atom   7 =  -0.41375
     SPIN  1
     eigenvalues:
       0.535  0.954  0.994  0.994  0.997
     eigenvectors (columns):
      -0.000 -1.000 -0.000  0.000  0.000
      -0.000 -0.000  1.000  0.000  0.000
      -0.000 -0.000  0.000 -1.000  0.000
       1.000 -0.000  0.000 -0.000 -0.000
       0.000  0.000 -0.000  0.000  1.000
     occupation matrix ns (before diag.):
       0.954 -0.000 -0.000  0.000  0.000
      -0.000  0.994 -0.000  0.000  0.000
      -0.000 -0.000  0.994  0.000  0.000
       0.000  0.000  0.000  0.535 -0.000
       0.000  0.000  0.000 -0.000  0.997
     SPIN  2
     eigenvalues:
       0.942  0.959  0.995  0.995  0.997
     eigenvectors (columns):
       0.000 -1.000 -0.000  0.000  0.000
      -0.000 -0.000  1.000  0.000  0.000
      -0.000 -0.000  0.000 -1.000  0.000
       1.000  0.000  0.000 -0.000 -0.000
       0.000  0.000 -0.000  0.000  1.000
     occupation matrix ns (before diag.):
       0.959 -0.000 -0.000 -0.000  0.000
      -0.000  0.995 -0.000  0.000  0.000
      -0.000 -0.000  0.995  0.000  0.000
      -0.000  0.000  0.000  0.942 -0.000
       0.000  0.000  0.000 -0.000  0.997
     ------------------------ ATOM    8 ------------------------
     Tr[ns(  8)] (up, down, total) =   4.88857  4.47468  9.36325
     Atomic magnetic moment for atom   8 =   0.41389
     SPIN  1
     eigenvalues:
       0.942  0.959  0.995  0.995  0.997
     eigenvectors (columns):
       0.000 -1.000  0.000 -0.000  0.000
      -0.000 -0.000 -0.388  0.922  0.000
      -0.000 -0.000 -0.922 -0.388  0.000
       1.000  0.000 -0.000  0.000 -0.000
       0.000  0.000  0.000 -0.000  1.000
     occupation matrix ns (before diag.):
       0.959 -0.000 -0.000 -0.000  0.000
      -0.000  0.995 -0.000  0.000  0.000
      -0.000 -0.000  0.995  0.000  0.000
      -0.000  0.000  0.000  0.942 -0.000
       0.000  0.000  0.000 -0.000  0.997
     SPIN  2
     eigenvalues:
       0.535  0.954  0.994  0.994  0.997
     eigenvectors (columns):
       0.000 -1.000  0.000 -0.000  0.000
      -0.000 -0.000 -0.438  0.899  0.000
      -0.000 -0.000 -0.899 -0.438  0.000
       1.000  0.000 -0.000  0.000 -0.000
       0.000  0.000  0.000  0.000  1.000
     occupation matrix ns (before diag.):
       0.954 -0.000 -0.000 -0.000  0.000
      -0.000  0.994 -0.000  0.000  0.000
      -0.000 -0.000  0.994  0.000  0.000
      -0.000  0.000  0.000  0.535 -0.000
       0.000  0.000  0.000 -0.000  0.997

     Number of occupied Hubbard levels =   37.4539

     HUBBARD ENERGY =    0.1943  (Ry)

     total cpu time spent up to now is      142.7 secs

     total energy              =   -1486.13242129 Ry
     estimated scf accuracy    <       0.00000138 Ry

     total magnetization       =    -0.00 Bohr mag/cell
     absolute magnetization    =     2.37 Bohr mag/cell

     iteration # 15     ecut=    90.00 Ry     beta= 0.30
     Davidson diagonalization with overlap

---- Real-time Memory Report at c_bands before calling an iterative solver
           256 MiB given to the printing process from OS
           189 MiB allocation reported by mallinfo(arena+hblkhd)
        480647 MiB available memory on the node where the printing process lives
------------------
     ethr =  1.04E-09,  avg # of iterations =  2.2

     =================== HUBBARD OCCUPATIONS ===================
     ------------------------ ATOM    5 ------------------------
     Tr[ns(  5)] (up, down, total) =   4.88854  4.47514  9.36368
     Atomic magnetic moment for atom   5 =   0.41339
     SPIN  1
     eigenvalues:
       0.942  0.959  0.995  0.995  0.997
     eigenvectors (columns):
       0.000 -1.000  0.000 -0.000  0.000
      -0.000 -0.000 -0.396  0.918  0.000
      -0.000 -0.000 -0.918 -0.396  0.000
       1.000  0.000 -0.000  0.000 -0.000
       0.000  0.000  0.000 -0.000  1.000
     occupation matrix ns (before diag.):
       0.959 -0.000 -0.000 -0.000  0.000
      -0.000  0.995 -0.000  0.000  0.000
      -0.000 -0.000  0.995  0.000  0.000
      -0.000  0.000  0.000  0.942 -0.000
       0.000  0.000  0.000 -0.000  0.997
     SPIN  2
     eigenvalues:
       0.535  0.954  0.994  0.994  0.997
     eigenvectors (columns):
       0.000 -1.000  0.000 -0.000  0.000
      -0.000 -0.000 -0.432  0.902  0.000
      -0.000 -0.000 -0.902 -0.432  0.000
       1.000  0.000 -0.000  0.000 -0.000
       0.000  0.000  0.000  0.000  1.000
     occupation matrix ns (before diag.):
       0.954 -0.000 -0.000 -0.000  0.000
      -0.000  0.994 -0.000  0.000  0.000
      -0.000 -0.000  0.994  0.000  0.000
      -0.000  0.000  0.000  0.535 -0.000
       0.000  0.000  0.000 -0.000  0.997
     ------------------------ ATOM    6 ------------------------
     Tr[ns(  6)] (up, down, total) =   4.47505  4.88852  9.36357
     Atomic magnetic moment for atom   6 =  -0.41347
     SPIN  1
     eigenvalues:
       0.535  0.954  0.994  0.994  0.997
     eigenvectors (columns):
       0.000 -1.000 -0.000  0.000  0.000
      -0.000 -0.000  1.000  0.000  0.000
      -0.000 -0.000  0.000 -1.000  0.000
       1.000  0.000  0.000 -0.000 -0.000
       0.000  0.000 -0.000  0.000  1.000
     occupation matrix ns (before diag.):
       0.954 -0.000 -0.000 -0.000  0.000
      -0.000  0.994 -0.000  0.000  0.000
      -0.000 -0.000  0.994  0.000  0.000
      -0.000  0.000  0.000  0.535 -0.000
       0.000  0.000  0.000 -0.000  0.997
     SPIN  2
     eigenvalues:
       0.942  0.959  0.995  0.995  0.997
     eigenvectors (columns):
       0.000 -1.000 -0.000  0.000  0.000
      -0.000 -0.000  1.000  0.000  0.000
      -0.000 -0.000  0.000 -1.000  0.000
       1.000  0.000  0.000 -0.000 -0.000
       0.000  0.000 -0.000  0.000  1.000
     occupation matrix ns (before diag.):
       0.959 -0.000 -0.000 -0.000  0.000
      -0.000  0.995 -0.000  0.000  0.000
      -0.000 -0.000  0.995  0.000  0.000
      -0.000  0.000  0.000  0.942 -0.000
       0.000  0.000  0.000 -0.000  0.997
     ------------------------ ATOM    7 ------------------------
     Tr[ns(  7)] (up, down, total) =   4.47505  4.88852  9.36357
     Atomic magnetic moment for atom   7 =  -0.41347
     SPIN  1
     eigenvalues:
       0.535  0.954  0.994  0.994  0.997
     eigenvectors (columns):
      -0.000 -1.000  0.000 -0.000  0.000
      -0.000 -0.000 -0.000  1.000  0.000
      -0.000 -0.000 -1.000 -0.000  0.000
       1.000 -0.000 -0.000  0.000 -0.000
       0.000  0.000  0.000 -0.000  1.000
     occupation matrix ns (before diag.):
       0.954 -0.000 -0.000  0.000  0.000
      -0.000  0.994 -0.000  0.000  0.000
      -0.000 -0.000  0.994  0.000  0.000
       0.000  0.000  0.000  0.535 -0.000
       0.000  0.000  0.000 -0.000  0.997
     SPIN  2
     eigenvalues:
       0.942  0.959  0.995  0.995  0.997
     eigenvectors (columns):
      -0.000 -1.000  0.000 -0.000  0.000
      -0.000 -0.000 -0.000  1.000  0.000
      -0.000 -0.000 -1.000 -0.000  0.000
       1.000 -0.000 -0.000  0.000 -0.000
       0.000  0.000  0.000 -0.000  1.000
     occupation matrix ns (before diag.):
       0.959 -0.000 -0.000  0.000  0.000
      -0.000  0.995 -0.000  0.000  0.000
      -0.000 -0.000  0.995  0.000  0.000
       0.000  0.000  0.000  0.942 -0.000
       0.000  0.000  0.000 -0.000  0.997
     ------------------------ ATOM    8 ------------------------
     Tr[ns(  8)] (up, down, total) =   4.88858  4.47517  9.36374
     Atomic magnetic moment for atom   8 =   0.41341
     SPIN  1
     eigenvalues:
       0.942  0.959  0.995  0.995  0.997
     eigenvectors (columns):
       0.000 -1.000  0.000 -0.000  0.000
      -0.000 -0.000 -0.385  0.923  0.000
      -0.000 -0.000 -0.923 -0.385  0.000
       1.000  0.000 -0.000  0.000 -0.000
       0.000  0.000  0.000 -0.000  1.000
     occupation matrix ns (before diag.):
       0.959 -0.000 -0.000 -0.000  0.000
      -0.000  0.995 -0.000  0.000  0.000
      -0.000 -0.000  0.995  0.000  0.000
      -0.000  0.000  0.000  0.942 -0.000
       0.000  0.000  0.000 -0.000  0.997
     SPIN  2
     eigenvalues:
       0.535  0.954  0.994  0.994  0.997
     eigenvectors (columns):
       0.000 -1.000  0.000 -0.000  0.000
      -0.000 -0.000 -0.436  0.900  0.000
      -0.000 -0.000 -0.900 -0.436  0.000
       1.000  0.000 -0.000  0.000 -0.000
       0.000  0.000  0.000  0.000  1.000
     occupation matrix ns (before diag.):
       0.954 -0.000 -0.000 -0.000  0.000
      -0.000  0.994 -0.000  0.000  0.000
      -0.000 -0.000  0.994  0.000  0.000
      -0.000  0.000  0.000  0.535 -0.000
       0.000  0.000  0.000 -0.000  0.997

     Number of occupied Hubbard levels =   37.4546

     HUBBARD ENERGY =    0.1943  (Ry)

     total cpu time spent up to now is      152.6 secs

     total energy              =   -1486.13242177 Ry
     estimated scf accuracy    <       0.00000046 Ry

     total magnetization       =    -0.00 Bohr mag/cell
     absolute magnetization    =     2.37 Bohr mag/cell

     iteration # 16     ecut=    90.00 Ry     beta= 0.30
     Davidson diagonalization with overlap

---- Real-time Memory Report at c_bands before calling an iterative solver
           256 MiB given to the printing process from OS
           189 MiB allocation reported by mallinfo(arena+hblkhd)
        480725 MiB available memory on the node where the printing process lives
------------------
     ethr =  3.45E-10,  avg # of iterations =  2.0

     =================== HUBBARD OCCUPATIONS ===================
     ------------------------ ATOM    5 ------------------------
     Tr[ns(  5)] (up, down, total) =   4.88844  4.47525  9.36369
     Atomic magnetic moment for atom   5 =   0.41320
     SPIN  1
     eigenvalues:
       0.942  0.959  0.995  0.995  0.997
     eigenvectors (columns):
       0.000 -1.000  0.000 -0.000  0.000
      -0.000 -0.000 -0.392  0.920  0.000
      -0.000 -0.000 -0.920 -0.392  0.000
       1.000  0.000 -0.000  0.000 -0.000
       0.000  0.000  0.000 -0.000  1.000
     occupation matrix ns (before diag.):
       0.959 -0.000 -0.000 -0.000  0.000
      -0.000  0.995 -0.000  0.000  0.000
      -0.000 -0.000  0.995  0.000  0.000
      -0.000  0.000  0.000  0.942 -0.000
       0.000  0.000  0.000 -0.000  0.997
     SPIN  2
     eigenvalues:
       0.535  0.954  0.994  0.994  0.997
     eigenvectors (columns):
       0.000 -1.000  0.000 -0.000  0.000
      -0.000 -0.000 -0.442  0.897  0.000
      -0.000 -0.000 -0.897 -0.442  0.000
       1.000  0.000 -0.000  0.000 -0.000
       0.000  0.000  0.000  0.000  1.000
     occupation matrix ns (before diag.):
       0.954 -0.000 -0.000 -0.000  0.000
      -0.000  0.994 -0.000  0.000  0.000
      -0.000 -0.000  0.994  0.000  0.000
      -0.000  0.000  0.000  0.535 -0.000
       0.000  0.000  0.000 -0.000  0.997
     ------------------------ ATOM    6 ------------------------
     Tr[ns(  6)] (up, down, total) =   4.47523  4.88845  9.36368
     Atomic magnetic moment for atom   6 =  -0.41321
     SPIN  1
     eigenvalues:
       0.535  0.954  0.994  0.994  0.997
     eigenvectors (columns):
       0.000 -1.000  0.000 -0.000  0.000
      -0.000 -0.000 -0.000  1.000  0.000
      -0.000 -0.000 -1.000 -0.000  0.000
       1.000  0.000 -0.000  0.000 -0.000
       0.000  0.000  0.000 -0.000  1.000
     occupation matrix ns (before diag.):
       0.954 -0.000 -0.000 -0.000  0.000
      -0.000  0.994 -0.000  0.000  0.000
      -0.000 -0.000  0.994  0.000  0.000
      -0.000  0.000  0.000  0.535 -0.000
       0.000  0.000  0.000 -0.000  0.997
     SPIN  2
     eigenvalues:
       0.942  0.959  0.995  0.995  0.997
     eigenvectors (columns):
      -0.000 -1.000  0.000 -0.000  0.000
      -0.000 -0.000 -0.000  1.000  0.000
      -0.000 -0.000 -1.000 -0.000  0.000
       1.000 -0.000 -0.000  0.000 -0.000
       0.000  0.000  0.000 -0.000  1.000
     occupation matrix ns (before diag.):
       0.959 -0.000 -0.000  0.000  0.000
      -0.000  0.995 -0.000  0.000  0.000
      -0.000 -0.000  0.995  0.000  0.000
       0.000  0.000  0.000  0.942 -0.000
       0.000  0.000  0.000 -0.000  0.997
     ------------------------ ATOM    7 ------------------------
     Tr[ns(  7)] (up, down, total) =   4.47523  4.88845  9.36368
     Atomic magnetic moment for atom   7 =  -0.41321
     SPIN  1
     eigenvalues:
       0.535  0.954  0.994  0.994  0.997
     eigenvectors (columns):
      -0.000 -1.000 -0.000  0.000  0.000
      -0.000 -0.000  1.000  0.000  0.000
      -0.000 -0.000  0.000 -1.000  0.000
       1.000 -0.000  0.000 -0.000 -0.000
       0.000  0.000 -0.000  0.000  1.000
     occupation matrix ns (before diag.):
       0.954 -0.000 -0.000  0.000  0.000
      -0.000  0.994 -0.000  0.000  0.000
      -0.000 -0.000  0.994  0.000  0.000
       0.000  0.000  0.000  0.535 -0.000
       0.000  0.000  0.000 -0.000  0.997
     SPIN  2
     eigenvalues:
       0.942  0.959  0.995  0.995  0.997
     eigenvectors (columns):
       0.000 -1.000 -0.000  0.000  0.000
      -0.000 -0.000  1.000  0.000  0.000
      -0.000 -0.000  0.000 -1.000  0.000
       1.000  0.000  0.000 -0.000 -0.000
       0.000  0.000 -0.000  0.000  1.000
     occupation matrix ns (before diag.):
       0.959 -0.000 -0.000 -0.000  0.000
      -0.000  0.995 -0.000  0.000  0.000
      -0.000 -0.000  0.995  0.000  0.000
      -0.000  0.000  0.000  0.942 -0.000
       0.000  0.000  0.000 -0.000  0.997
     ------------------------ ATOM    8 ------------------------
     Tr[ns(  8)] (up, down, total) =   4.88843  4.47520  9.36363
     Atomic magnetic moment for atom   8 =   0.41323
     SPIN  1
     eigenvalues:
       0.942  0.959  0.995  0.995  0.997
     eigenvectors (columns):
       0.000 -1.000  0.000 -0.000  0.000
      -0.000 -0.000 -0.412  0.911  0.000
      -0.000 -0.000 -0.911 -0.412  0.000
       1.000  0.000 -0.000  0.000 -0.000
       0.000  0.000  0.000 -0.000  1.000
     occupation matrix ns (before diag.):
       0.959 -0.000 -0.000 -0.000  0.000
      -0.000  0.995 -0.000  0.000  0.000
      -0.000 -0.000  0.995  0.000  0.000
      -0.000  0.000  0.000  0.942 -0.000
       0.000  0.000  0.000 -0.000  0.997
     SPIN  2
     eigenvalues:
       0.535  0.954  0.994  0.994  0.997
     eigenvectors (columns):
       0.000 -1.000  0.000 -0.000  0.000
      -0.000 -0.000 -0.460  0.888  0.000
      -0.000 -0.000 -0.888 -0.460  0.000
       1.000  0.000 -0.000  0.000 -0.000
       0.000  0.000  0.000  0.000  1.000
     occupation matrix ns (before diag.):
       0.954 -0.000 -0.000 -0.000  0.000
      -0.000  0.994 -0.000  0.000  0.000
      -0.000 -0.000  0.994  0.000  0.000
      -0.000  0.000  0.000  0.535 -0.000
       0.000  0.000  0.000 -0.000  0.997

     Number of occupied Hubbard levels =   37.4547

     HUBBARD ENERGY =    0.1943  (Ry)

     total cpu time spent up to now is      162.2 secs

     total energy              =   -1486.13242195 Ry
     estimated scf accuracy    <       0.00000005 Ry

     total magnetization       =    -0.00 Bohr mag/cell
     absolute magnetization    =     2.36 Bohr mag/cell

     iteration # 17     ecut=    90.00 Ry     beta= 0.30
     Davidson diagonalization with overlap

---- Real-time Memory Report at c_bands before calling an iterative solver
           256 MiB given to the printing process from OS
           189 MiB allocation reported by mallinfo(arena+hblkhd)
        480731 MiB available memory on the node where the printing process lives
------------------
     ethr =  3.91E-11,  avg # of iterations =  4.1

     =================== HUBBARD OCCUPATIONS ===================
     ------------------------ ATOM    5 ------------------------
     Tr[ns(  5)] (up, down, total) =   4.88846  4.47520  9.36366
     Atomic magnetic moment for atom   5 =   0.41325
     SPIN  1
     eigenvalues:
       0.942  0.959  0.995  0.995  0.997
     eigenvectors (columns):
       0.000 -1.000  0.000 -0.000  0.000
      -0.000 -0.000 -0.406  0.914  0.000
      -0.000 -0.000 -0.914 -0.406  0.000
       1.000  0.000 -0.000  0.000 -0.000
       0.000  0.000  0.000 -0.000  1.000
     occupation matrix ns (before diag.):
       0.959 -0.000 -0.000 -0.000  0.000
      -0.000  0.995 -0.000  0.000  0.000
      -0.000 -0.000  0.995  0.000  0.000
      -0.000  0.000  0.000  0.942 -0.000
       0.000  0.000  0.000 -0.000  0.997
     SPIN  2
     eigenvalues:
       0.535  0.954  0.994  0.994  0.997
     eigenvectors (columns):
       0.000 -1.000  0.000 -0.000  0.000
      -0.000 -0.000 -0.392  0.920  0.000
      -0.000 -0.000 -0.920 -0.392  0.000
       1.000  0.000 -0.000  0.000 -0.000
       0.000  0.000  0.000 -0.000  1.000
     occupation matrix ns (before diag.):
       0.954 -0.000 -0.000 -0.000  0.000
      -0.000  0.994 -0.000  0.000  0.000
      -0.000 -0.000  0.994  0.000  0.000
      -0.000  0.000  0.000  0.535 -0.000
       0.000  0.000  0.000 -0.000  0.997
     ------------------------ ATOM    6 ------------------------
     Tr[ns(  6)] (up, down, total) =   4.47520  4.88846  9.36366
     Atomic magnetic moment for atom   6 =  -0.41325
     SPIN  1
     eigenvalues:
       0.535  0.954  0.994  0.994  0.997
     eigenvectors (columns):
       0.000 -1.000 -0.000  0.000  0.000
      -0.000 -0.000  1.000  0.000  0.000
      -0.000 -0.000  0.000 -1.000  0.000
       1.000  0.000  0.000 -0.000 -0.000
       0.000  0.000 -0.000  0.000  1.000
     occupation matrix ns (before diag.):
       0.954 -0.000 -0.000 -0.000  0.000
      -0.000  0.994 -0.000  0.000  0.000
      -0.000 -0.000  0.994  0.000  0.000
      -0.000  0.000  0.000  0.535 -0.000
       0.000  0.000  0.000 -0.000  0.997
     SPIN  2
     eigenvalues:
       0.942  0.959  0.995  0.995  0.997
     eigenvectors (columns):
      -0.000 -1.000 -0.000  0.000  0.000
      -0.000 -0.000  1.000  0.000  0.000
      -0.000 -0.000  0.000 -1.000  0.000
       1.000 -0.000  0.000 -0.000 -0.000
       0.000  0.000 -0.000  0.000  1.000
     occupation matrix ns (before diag.):
       0.959 -0.000 -0.000  0.000  0.000
      -0.000  0.995 -0.000  0.000  0.000
      -0.000 -0.000  0.995  0.000  0.000
       0.000  0.000  0.000  0.942 -0.000
       0.000  0.000  0.000 -0.000  0.997
     ------------------------ ATOM    7 ------------------------
     Tr[ns(  7)] (up, down, total) =   4.47520  4.88846  9.36366
     Atomic magnetic moment for atom   7 =  -0.41325
     SPIN  1
     eigenvalues:
       0.535  0.954  0.994  0.994  0.997
     eigenvectors (columns):
      -0.000 -1.000  0.000 -0.000  0.000
      -0.000 -0.000 -0.000  1.000  0.000
      -0.000 -0.000 -1.000 -0.000  0.000
       1.000 -0.000 -0.000  0.000 -0.000
       0.000  0.000  0.000 -0.000  1.000
     occupation matrix ns (before diag.):
       0.954 -0.000 -0.000  0.000  0.000
      -0.000  0.994 -0.000  0.000  0.000
      -0.000 -0.000  0.994  0.000  0.000
       0.000  0.000  0.000  0.535 -0.000
       0.000  0.000  0.000 -0.000  0.997
     SPIN  2
     eigenvalues:
       0.942  0.959  0.995  0.995  0.997
     eigenvectors (columns):
       0.000 -1.000  0.000 -0.000  0.000
      -0.000 -0.000 -0.000  1.000  0.000
      -0.000 -0.000 -1.000 -0.000  0.000
       1.000  0.000 -0.000  0.000 -0.000
       0.000  0.000  0.000 -0.000  1.000
     occupation matrix ns (before diag.):
       0.959 -0.000 -0.000 -0.000  0.000
      -0.000  0.995 -0.000  0.000  0.000
      -0.000 -0.000  0.995  0.000  0.000
      -0.000  0.000  0.000  0.942 -0.000
       0.000  0.000  0.000 -0.000  0.997
     ------------------------ ATOM    8 ------------------------
     Tr[ns(  8)] (up, down, total) =   4.88845  4.47520  9.36366
     Atomic magnetic moment for atom   8 =   0.41325
     SPIN  1
     eigenvalues:
       0.942  0.959  0.995  0.995  0.997
     eigenvectors (columns):
       0.000 -1.000  0.000 -0.000  0.000
      -0.000 -0.000 -0.407  0.913  0.000
      -0.000 -0.000 -0.913 -0.407  0.000
       1.000  0.000 -0.000  0.000 -0.000
       0.000  0.000  0.000 -0.000  1.000
     occupation matrix ns (before diag.):
       0.959 -0.000 -0.000 -0.000  0.000
      -0.000  0.995 -0.000  0.000  0.000
      -0.000 -0.000  0.995  0.000  0.000
      -0.000  0.000  0.000  0.942 -0.000
       0.000  0.000  0.000 -0.000  0.997
     SPIN  2
     eigenvalues:
       0.535  0.954  0.994  0.994  0.997
     eigenvectors (columns):
       0.000 -1.000  0.000 -0.000  0.000
      -0.000 -0.000 -0.382  0.924  0.000
      -0.000 -0.000 -0.924 -0.382  0.000
       1.000  0.000 -0.000  0.000 -0.000
       0.000  0.000  0.000 -0.000  1.000
     occupation matrix ns (before diag.):
       0.954 -0.000 -0.000 -0.000  0.000
      -0.000  0.994 -0.000  0.000  0.000
      -0.000 -0.000  0.994  0.000  0.000
      -0.000  0.000  0.000  0.535 -0.000
       0.000  0.000  0.000 -0.000  0.997

     Number of occupied Hubbard levels =   37.4546

     HUBBARD ENERGY =    0.1943  (Ry)

     total cpu time spent up to now is      173.3 secs

     total energy              =   -1486.13242198 Ry
     estimated scf accuracy    <       0.00000003 Ry

     total magnetization       =    -0.00 Bohr mag/cell
     absolute magnetization    =     2.36 Bohr mag/cell

     iteration # 18     ecut=    90.00 Ry     beta= 0.30
     Davidson diagonalization with overlap

---- Real-time Memory Report at c_bands before calling an iterative solver
           256 MiB given to the printing process from OS
           189 MiB allocation reported by mallinfo(arena+hblkhd)
        480758 MiB available memory on the node where the printing process lives
------------------
     ethr =  2.19E-11,  avg # of iterations =  2.0

     =================== HUBBARD OCCUPATIONS ===================
     ------------------------ ATOM    5 ------------------------
     Tr[ns(  5)] (up, down, total) =   4.88845  4.47520  9.36366
     Atomic magnetic moment for atom   5 =   0.41325
     SPIN  1
     eigenvalues:
       0.942  0.959  0.995  0.995  0.997
     eigenvectors (columns):
      -0.000  1.000  0.000 -0.000  0.000
       0.000  0.000 -0.422  0.907  0.000
       0.000  0.000 -0.907 -0.422  0.000
      -1.000 -0.000 -0.000  0.000 -0.000
      -0.000 -0.000  0.000  0.000  1.000
     occupation matrix ns (before diag.):
       0.959 -0.000 -0.000 -0.000  0.000
      -0.000  0.995 -0.000  0.000  0.000
      -0.000 -0.000  0.995  0.000  0.000
      -0.000  0.000  0.000  0.942 -0.000
       0.000  0.000  0.000 -0.000  0.997
     SPIN  2
     eigenvalues:
       0.535  0.954  0.994  0.994  0.997
     eigenvectors (columns):
       0.000  1.000  0.000 -0.000  0.000
      -0.000  0.000 -0.422  0.907  0.000
      -0.000  0.000 -0.907 -0.422  0.000
       1.000 -0.000 -0.000  0.000 -0.000
       0.000 -0.000  0.000  0.000  1.000
     occupation matrix ns (before diag.):
       0.954 -0.000 -0.000 -0.000  0.000
      -0.000  0.994 -0.000  0.000  0.000
      -0.000 -0.000  0.994  0.000  0.000
      -0.000  0.000  0.000  0.535 -0.000
       0.000  0.000  0.000 -0.000  0.997
     ------------------------ ATOM    6 ------------------------
     Tr[ns(  6)] (up, down, total) =   4.47520  4.88846  9.36366
     Atomic magnetic moment for atom   6 =  -0.41325
     SPIN  1
     eigenvalues:
       0.535  0.954  0.994  0.994  0.997
     eigenvectors (columns):
       0.000 -1.000 -0.000  0.000  0.000
      -0.000 -0.000  1.000  0.000  0.000
      -0.000 -0.000  0.000 -1.000  0.000
       1.000  0.000  0.000 -0.000 -0.000
       0.000  0.000 -0.000  0.000  1.000
     occupation matrix ns (before diag.):
       0.954 -0.000 -0.000 -0.000  0.000
      -0.000  0.994 -0.000  0.000  0.000
      -0.000 -0.000  0.994  0.000  0.000
      -0.000  0.000  0.000  0.535 -0.000
       0.000  0.000  0.000 -0.000  0.997
     SPIN  2
     eigenvalues:
       0.942  0.959  0.995  0.995  0.997
     eigenvectors (columns):
      -0.000 -1.000 -0.000  0.000  0.000
      -0.000 -0.000  1.000  0.000  0.000
      -0.000 -0.000  0.000 -1.000  0.000
       1.000 -0.000  0.000 -0.000 -0.000
       0.000  0.000 -0.000  0.000  1.000
     occupation matrix ns (before diag.):
       0.959 -0.000 -0.000  0.000  0.000
      -0.000  0.995 -0.000  0.000  0.000
      -0.000 -0.000  0.995  0.000  0.000
       0.000  0.000  0.000  0.942 -0.000
       0.000  0.000  0.000 -0.000  0.997
     ------------------------ ATOM    7 ------------------------
     Tr[ns(  7)] (up, down, total) =   4.47520  4.88846  9.36366
     Atomic magnetic moment for atom   7 =  -0.41325
     SPIN  1
     eigenvalues:
       0.535  0.954  0.994  0.994  0.997
     eigenvectors (columns):
      -0.000 -1.000  0.000 -0.000  0.000
      -0.000 -0.000 -0.000  1.000  0.000
      -0.000 -0.000 -1.000 -0.000  0.000
       1.000 -0.000 -0.000  0.000 -0.000
       0.000  0.000  0.000 -0.000  1.000
     occupation matrix ns (before diag.):
       0.954 -0.000 -0.000  0.000  0.000
      -0.000  0.994 -0.000  0.000  0.000
      -0.000 -0.000  0.994  0.000  0.000
       0.000  0.000  0.000  0.535 -0.000
       0.000  0.000  0.000 -0.000  0.997
     SPIN  2
     eigenvalues:
       0.942  0.959  0.995  0.995  0.997
     eigenvectors (columns):
       0.000 -1.000  0.000 -0.000  0.000
      -0.000 -0.000 -0.000  1.000  0.000
      -0.000 -0.000 -1.000 -0.000  0.000
       1.000  0.000 -0.000  0.000 -0.000
       0.000  0.000  0.000 -0.000  1.000
     occupation matrix ns (before diag.):
       0.959 -0.000 -0.000 -0.000  0.000
      -0.000  0.995 -0.000  0.000  0.000
      -0.000 -0.000  0.995  0.000  0.000
      -0.000  0.000  0.000  0.942 -0.000
       0.000  0.000  0.000 -0.000  0.997
     ------------------------ ATOM    8 ------------------------
     Tr[ns(  8)] (up, down, total) =   4.88846  4.47521  9.36367
     Atomic magnetic moment for atom   8 =   0.41325
     SPIN  1
     eigenvalues:
       0.942  0.959  0.995  0.995  0.997
     eigenvectors (columns):
       0.000 -1.000  0.000 -0.000  0.000
      -0.000 -0.000 -0.414  0.910  0.000
      -0.000 -0.000 -0.910 -0.414  0.000
       1.000  0.000 -0.000  0.000 -0.000
       0.000  0.000  0.000 -0.000  1.000
     occupation matrix ns (before diag.):
       0.959 -0.000 -0.000 -0.000  0.000
      -0.000  0.995 -0.000  0.000  0.000
      -0.000 -0.000  0.995  0.000  0.000
      -0.000  0.000  0.000  0.942 -0.000
       0.000  0.000  0.000 -0.000  0.997
     SPIN  2
     eigenvalues:
       0.535  0.954  0.994  0.994  0.997
     eigenvectors (columns):
       0.000 -1.000  0.000 -0.000  0.000
      -0.000 -0.000 -0.376  0.927  0.000
      -0.000 -0.000 -0.927 -0.376  0.000
       1.000  0.000 -0.000  0.000 -0.000
       0.000  0.000  0.000 -0.000  1.000
     occupation matrix ns (before diag.):
       0.954 -0.000 -0.000 -0.000  0.000
      -0.000  0.994 -0.000  0.000  0.000
      -0.000 -0.000  0.994  0.000  0.000
      -0.000  0.000  0.000  0.535 -0.000
       0.000  0.000  0.000 -0.000  0.997

     Number of occupied Hubbard levels =   37.4546

     HUBBARD ENERGY =    0.1943  (Ry)

     Magnetic moment per site  (integrated on atomic sphere of radius R)
     atom   1 (R=0.134)  charge=  7.8373  magn=  0.0000
     atom   2 (R=0.134)  charge=  7.8373  magn=  0.0000
     atom   3 (R=0.134)  charge=  7.8373  magn=  0.0000
     atom   4 (R=0.134)  charge=  7.8373  magn=  0.0000
     atom   5 (R=0.103)  charge=  8.4640  magn=  0.4276
     atom   6 (R=0.103)  charge=  8.4644  magn= -0.4277
     atom   7 (R=0.103)  charge=  8.4644  magn= -0.4277
     atom   8 (R=0.103)  charge=  8.4648  magn=  0.4277
     atom   9 (R=0.103)  charge=  5.2870  magn=  0.0000
     atom  10 (R=0.103)  charge=  5.2873  magn= -0.0000
     atom  11 (R=0.103)  charge=  5.2870  magn=  0.0000
     atom  12 (R=0.103)  charge=  5.2873  magn= -0.0000
     atom  13 (R=0.103)  charge=  5.2870  magn=  0.0000
     atom  14 (R=0.103)  charge=  5.2870  magn=  0.0000
     atom  15 (R=0.103)  charge=  5.2873  magn= -0.0000
     atom  16 (R=0.103)  charge=  5.2873  magn= -0.0000

     total cpu time spent up to now is      182.8 secs

     End of self-consistent calculation

 ------ SPIN UP ------------


          k = 0.0000 0.0000 0.0000 ( 18051 PWs)   bands (ev):

   -29.3456 -29.3352 -29.3352 -29.3272 -10.9436 -10.9368 -10.8693 -10.8693
   -10.3922 -10.3922 -10.3816 -10.3812 -10.1202 -10.1029 -10.1029 -10.0835
    -8.6969  -7.8341  -7.8341  -7.4870  -7.4521  -7.4112  -7.1612  -7.1612
     2.3487   2.7625   3.3581   3.4164   3.5400   4.6126   4.7404   5.0247
     5.0247   5.1258   5.1258   5.2079   5.2079   5.2172   5.3106   5.3176
     5.5295   5.5714   5.6135   5.6135   5.7502   5.7502   5.7666   5.7666
     6.4609   6.4609   7.1783   7.3660   7.3686   7.3926   7.4168   7.6471
     8.2350   8.2350   8.2925   8.3685   8.4276   8.4627   8.4627   8.5794
     8.7935   8.7935   9.3046  11.2790  11.8229  13.9464  14.0102  14.0102
    15.0207  15.0824  15.1146  15.3961  15.4815  15.6070  15.6070

     occupation numbers 
     1.0000   1.0000   1.0000   1.0000   1.0000   1.0000   1.0000   1.0000
     1.0000   1.0000   1.0000   1.0000   1.0000   1.0000   1.0000   1.0000
     1.0000   1.0000   1.0000   1.0000   1.0000   1.0000   1.0000   1.0000
     1.0000   1.0000   1.0000   1.0000   1.0000   1.0000   1.0000   1.0000
     1.0000   1.0000   1.0000   1.0000   1.0000   1.0000   1.0000   1.0000
     1.0000   1.0000   1.0000   1.0000   1.0000   1.0000   1.0000   1.0000
     1.0000   1.0000   1.0000   1.0000   1.0000   1.0000   1.0000   1.0000
     1.0000   1.0000   1.0000   1.0000   1.0000   1.0000   1.0000   1.0000
     1.0000   1.0000   0.7896   0.0000   0.0000   0.0000   0.0000   0.0000
     0.0000   0.0000   0.0000   0.0000   0.0000   0.0000   0.0000

          k = 0.0000 0.0000 0.2021 ( 18082 PWs)   bands (ev):

   -29.3409 -29.3307 -29.3307 -29.3227 -10.9144 -10.9081 -10.8432 -10.8432
   -10.3855 -10.3855 -10.3748 -10.3744 -10.2378 -10.1717 -10.1717 -10.1273
    -8.5856  -7.7815  -7.7815  -7.4820  -7.4734  -7.4415  -7.1894  -7.1894
     2.3829   2.7699   3.4056   3.4199   3.5488   4.5996   4.7261   4.9859
     4.9859   5.0644   5.0644   5.1943   5.1943   5.2447   5.3214   5.3615
     5.5759   5.5973   5.5973   5.6136   5.7343   5.7343   5.7892   5.7892
     6.5221   6.5221   7.1788   7.2363   7.2733   7.3038   7.4296   7.7106
     8.1417   8.2044   8.2044   8.3218   8.3822   8.4327   8.4327   8.6029
     8.6720   8.6720   9.3300  11.4842  11.8256  14.1244  14.2094  14.2094
    14.8055  14.9852  15.0497  15.5746  15.5933  15.5933  15.5968

     occupation numbers 
     1.0000   1.0000   1.0000   1.0000   1.0000   1.0000   1.0000   1.0000
     1.0000   1.0000   1.0000   1.0000   1.0000   1.0000   1.0000   1.0000
     1.0000   1.0000   1.0000   1.0000   1.0000   1.0000   1.0000   1.0000
     1.0000   1.0000   1.0000   1.0000   1.0000   1.0000   1.0000   1.0000
     1.0000   1.0000   1.0000   1.0000   1.0000   1.0000   1.0000   1.0000
     1.0000   1.0000   1.0000   1.0000   1.0000   1.0000   1.0000   1.0000
     1.0000   1.0000   1.0000   1.0000   1.0000   1.0000   1.0000   1.0000
     1.0000   1.0000   1.0000   1.0000   1.0000   1.0000   1.0000   1.0000
     1.0000   1.0000   0.6576   0.0000   0.0000   0.0000   0.0000   0.0000
     0.0000   0.0000   0.0000   0.0000   0.0000   0.0000   0.0000

          k = 0.0000 0.0000 0.4042 ( 18094 PWs)   bands (ev):

   -29.3280 -29.3184 -29.3184 -29.3104 -10.8316 -10.8263 -10.7694 -10.7694
   -10.5017 -10.3670 -10.3670 -10.3561 -10.3557 -10.3469 -10.3469 -10.2454
    -8.3378  -7.6488  -7.6488  -7.5670  -7.5272  -7.4361  -7.2691  -7.2691
     2.4754   2.7902   3.4293   3.5312   3.5719   4.5623   4.6854   4.8816
     4.8816   4.8915   4.8915   5.1562   5.1562   5.2836   5.3320   5.5030
     5.5580   5.5580   5.6886   5.6886   5.7252   5.7267   5.8466   5.8466
     6.6874   6.6874   6.8425   7.0792   7.1346   7.1785   7.5333   7.7627
     7.8397   8.1280   8.1280   8.2000   8.2641   8.3570   8.3570   8.3893
     8.3893   8.6683   9.4025  11.8327  11.9998  14.0045  14.6397  14.7375
    14.7375  14.8566  14.9288  15.5550  15.5550  15.9267  16.0284

     occupation numbers 
     1.0000   1.0000   1.0000   1.0000   1.0000   1.0000   1.0000   1.0000
     1.0000   1.0000   1.0000   1.0000   1.0000   1.0000   1.0000   1.0000
     1.0000   1.0000   1.0000   1.0000   1.0000   1.0000   1.0000   1.0000
     1.0000   1.0000   1.0000   1.0000   1.0000   1.0000   1.0000   1.0000
     1.0000   1.0000   1.0000   1.0000   1.0000   1.0000   1.0000   1.0000
     1.0000   1.0000   1.0000   1.0000   1.0000   1.0000   1.0000   1.0000
     1.0000   1.0000   1.0000   1.0000   1.0000   1.0000   1.0000   1.0000
     1.0000   1.0000   1.0000   1.0000   1.0000   1.0000   1.0000   1.0000
     1.0000   1.0000   0.2408   0.0000   0.0000   0.0000   0.0000   0.0000
     0.0000   0.0000   0.0000   0.0000   0.0000   0.0000   0.0000

          k = 0.0000 0.0000 0.6063 ( 18118 PWs)   bands (ev):

   -29.3102 -29.3016 -29.3016 -29.2935 -10.7908 -10.7102 -10.7062 -10.6622
   -10.6622 -10.5639 -10.5639 -10.4026 -10.3417 -10.3417 -10.3305 -10.3300
    -8.0669  -7.6920  -7.6528  -7.4863  -7.4863  -7.3850  -7.3850  -7.3842
     2.5997   2.8178   3.4423   3.6019   3.6937   4.5075   4.6259   4.6437
     4.6437   4.7431   4.7431   5.1019   5.1019   5.2149   5.3465   5.5120
     5.5120   5.6210   5.6210   5.7077   5.8801   5.9198   5.9198   5.9857
     6.5254   6.8575   6.9099   6.9099   6.9174   7.1533   7.3263   7.6811
     8.0115   8.0394   8.0394   8.0467   8.0873   8.0873   8.1160   8.2660
     8.2660   8.7609   9.5159  11.8424  12.6773  12.9634  14.5925  14.6748
    15.4329  15.4626  15.4626  15.5005  15.5005  16.0083  16.4148

     occupation numbers 
     1.0000   1.0000   1.0000   1.0000   1.0000   1.0000   1.0000   1.0000
     1.0000   1.0000   1.0000   1.0000   1.0000   1.0000   1.0000   1.0000
     1.0000   1.0000   1.0000   1.0000   1.0000   1.0000   1.0000   1.0000
     1.0000   1.0000   1.0000   1.0000   1.0000   1.0000   1.0000   1.0000
     1.0000   1.0000   1.0000   1.0000   1.0000   1.0000   1.0000   1.0000
     1.0000   1.0000   1.0000   1.0000   1.0000   1.0000   1.0000   1.0000
     1.0000   1.0000   1.0000   1.0000   1.0000   1.0000   1.0000   1.0000
     1.0000   1.0000   1.0000   1.0000   1.0000   1.0000   1.0000   1.0000
     1.0000   1.0000  -0.0021   0.0000   0.0000   0.0000   0.0000   0.0000
     0.0000   0.0000   0.0000   0.0000   0.0000   0.0000   0.0000

          k = 0.0000 0.0000 0.8084 ( 18110 PWs)   bands (ev):

   -29.2923 -29.2848 -29.2848 -29.2764 -11.0361 -10.7625 -10.7625 -10.5768
   -10.5743 -10.5555 -10.5460 -10.5460 -10.3162 -10.3162 -10.3046 -10.3042
    -7.8358  -7.8296  -7.7905  -7.5107  -7.5107  -7.3381  -7.3381  -7.3312
     2.7209   2.8447   3.4553   3.6301   3.8463   4.3853   4.3853   4.4486
     4.5619   4.6090   4.6090   4.9883   5.0440   5.0440   5.3612   5.4711
     5.4711   5.5492   5.5492   5.9346   5.9904   5.9904   6.0363   6.2319
     6.5501   6.6533   6.7064   6.8530   7.1296   7.1296   7.2119   7.8362
     7.8519   7.8519   7.9069   7.9672   7.9672   7.9817   8.1868   8.1868
     8.2180   8.8575   9.6582  11.8523  11.9123  13.4341  14.2121  14.3022
    15.4427  15.4427  16.1036  16.1133  16.1133  16.2371  16.2371

     occupation numbers 
     1.0000   1.0000   1.0000   1.0000   1.0000   1.0000   1.0000   1.0000
     1.0000   1.0000   1.0000   1.0000   1.0000   1.0000   1.0000   1.0000
     1.0000   1.0000   1.0000   1.0000   1.0000   1.0000   1.0000   1.0000
     1.0000   1.0000   1.0000   1.0000   1.0000   1.0000   1.0000   1.0000
     1.0000   1.0000   1.0000   1.0000   1.0000   1.0000   1.0000   1.0000
     1.0000   1.0000   1.0000   1.0000   1.0000   1.0000   1.0000   1.0000
     1.0000   1.0000   1.0000   1.0000   1.0000   1.0000   1.0000   1.0000
     1.0000   1.0000   1.0000   1.0000   1.0000   1.0000   1.0000   1.0000
     1.0000   1.0000  -0.0005   0.0000   0.0000   0.0000   0.0000   0.0000
     0.0000   0.0000   0.0000   0.0000   0.0000   0.0000   0.0000

          k = 0.0000 0.0000 1.0105 ( 18146 PWs)   bands (ev):

   -29.2791 -29.2725 -29.2725 -29.2637 -11.1982 -10.8989 -10.8989 -10.6650
   -10.4693 -10.4681 -10.4538 -10.4538 -10.2973 -10.2973 -10.2855 -10.2851
    -7.9406  -7.9011  -7.6817  -7.6103  -7.6103  -7.2917  -7.2358  -7.2358
     2.8071   2.8641   3.4649   3.6501   3.9521   4.1913   4.1913   4.4027
     4.5124   4.5136   4.5136   4.7574   4.9988   4.9988   5.3720   5.4432
     5.4432   5.4954   5.4954   6.0412   6.0412   6.1343   6.1629   6.3031
     6.4979   6.5351   6.5753   6.8869   7.2084   7.2893   7.2893   7.7103
     7.7103   7.8125   7.8912   7.9234   7.9234   7.9546   8.1352   8.1352
     8.4078   8.9310   9.7935  11.0720  11.8595  13.8528  13.9450  14.1895
    15.3987  15.3987  15.8765  15.8765  16.1761  16.3829  16.3908

     occupation numbers 
     1.0000   1.0000   1.0000   1.0000   1.0000   1.0000   1.0000   1.0000
     1.0000   1.0000   1.0000   1.0000   1.0000   1.0000   1.0000   1.0000
     1.0000   1.0000   1.0000   1.0000   1.0000   1.0000   1.0000   1.0000
     1.0000   1.0000   1.0000   1.0000   1.0000   1.0000   1.0000   1.0000
     1.0000   1.0000   1.0000   1.0000   1.0000   1.0000   1.0000   1.0000
     1.0000   1.0000   1.0000   1.0000   1.0000   1.0000   1.0000   1.0000
     1.0000   1.0000   1.0000   1.0000   1.0000   1.0000   1.0000   1.0000
     1.0000   1.0000   1.0000   1.0000   1.0000   1.0000   1.0000   1.0000
     1.0000   1.0000   0.0000   0.0000   0.0000   0.0000   0.0000   0.0000
     0.0000   0.0000   0.0000   0.0000   0.0000   0.0000   0.0000

          k = 0.0000 0.0000-1.2126 ( 18162 PWs)   bands (ev):

   -29.2742 -29.2680 -29.2680 -29.2591 -11.2548 -10.9472 -10.9472 -10.7045
   -10.4274 -10.4267 -10.4183 -10.4183 -10.2904 -10.2904 -10.2785 -10.2781
    -7.9839  -7.9442  -7.6486  -7.6486  -7.6277  -7.2770  -7.1993  -7.1993
     2.8381   2.8711   3.4684   3.6573   3.9896   4.1196   4.1196   4.3854
     4.4792   4.4792   4.4937   4.6662   4.9815   4.9815   5.3759   5.4333
     5.4333   5.4757   5.4757   6.0598   6.0598   6.2231   6.2377   6.3245
     6.4279   6.4454   6.4763   7.0711   7.2084   7.3476   7.3476   7.6638
     7.6638   7.7794   7.8597   7.9092   7.9092   7.9991   8.1176   8.1176
     8.4887   8.9585   9.8528  10.7280  11.8622  13.7028  13.7943  14.6085
    15.3822  15.3822  15.7934  15.7934  16.2035  16.3071  16.3156

     occupation numbers 
     1.0000   1.0000   1.0000   1.0000   1.0000   1.0000   1.0000   1.0000
     1.0000   1.0000   1.0000   1.0000   1.0000   1.0000   1.0000   1.0000
     1.0000   1.0000   1.0000   1.0000   1.0000   1.0000   1.0000   1.0000
     1.0000   1.0000   1.0000   1.0000   1.0000   1.0000   1.0000   1.0000
     1.0000   1.0000   1.0000   1.0000   1.0000   1.0000   1.0000   1.0000
     1.0000   1.0000   1.0000   1.0000   1.0000   1.0000   1.0000   1.0000
     1.0000   1.0000   1.0000   1.0000   1.0000   1.0000   1.0000   1.0000
     1.0000   1.0000   1.0000   1.0000   1.0000   1.0000   1.0000   1.0000
     1.0000   1.0000   0.0000   0.0000   0.0000   0.0000   0.0000   0.0000
     0.0000   0.0000   0.0000   0.0000   0.0000   0.0000   0.0000

          k = 0.0000 0.2000 0.0000 ( 18094 PWs)   bands (ev):

   -29.3446 -29.3362 -29.3343 -29.3278 -10.9336 -10.8979 -10.8760 -10.8300
   -10.4601 -10.4377 -10.3912 -10.3825 -10.1185 -10.1045 -10.1010 -10.0853
    -8.6128  -7.9345  -7.7610  -7.4690  -7.4298  -7.3875  -7.2191  -7.1889
     2.4782   2.8232   3.4469   3.4507   3.5693   4.4688   4.7203   4.9430
     5.0348   5.0689   5.0830   5.1166   5.1542   5.1625   5.2500   5.3101
     5.4217   5.5386   5.5868   5.6078   5.6747   5.6805   5.7517   5.7650
     6.5493   6.6500   7.2021   7.3765   7.3951   7.4577   7.5013   7.9216
     8.1853   8.2488   8.3057   8.3516   8.3763   8.4056   8.4908   8.5162
     8.7301   8.7581   9.5355  11.5065  11.6310  13.6356  14.1088  14.1205
    15.0458  15.1033  15.1373  15.2989  15.4461  15.6214  15.6250

     occupation numbers 
     1.0000   1.0000   1.0000   1.0000   1.0000   1.0000   1.0000   1.0000
     1.0000   1.0000   1.0000   1.0000   1.0000   1.0000   1.0000   1.0000
     1.0000   1.0000   1.0000   1.0000   1.0000   1.0000   1.0000   1.0000
     1.0000   1.0000   1.0000   1.0000   1.0000   1.0000   1.0000   1.0000
     1.0000   1.0000   1.0000   1.0000   1.0000   1.0000   1.0000   1.0000
     1.0000   1.0000   1.0000   1.0000   1.0000   1.0000   1.0000   1.0000
     1.0000   1.0000   1.0000   1.0000   1.0000   1.0000   1.0000   1.0000
     1.0000   1.0000   1.0000   1.0000   1.0000   1.0000   1.0000   1.0000
     1.0000   1.0000   0.1359   0.0000   0.0000   0.0000   0.0000   0.0000
     0.0000   0.0000   0.0000   0.0000   0.0000   0.0000   0.0000

          k = 0.0000 0.2000 0.2021 ( 18116 PWs)   bands (ev):

   -29.3399 -29.3316 -29.3298 -29.3233 -10.9049 -10.8715 -10.8496 -10.8058
   -10.4575 -10.4311 -10.3844 -10.3757 -10.2208 -10.1751 -10.1635 -10.1302
    -8.5132  -7.8851  -7.7177  -7.4579  -7.4547  -7.4118  -7.2405  -7.2171
     2.5112   2.8313   3.4504   3.4932   3.5792   4.4634   4.7070   4.9340
     4.9940   5.0310   5.0597   5.0723   5.0975   5.1701   5.2815   5.3622
     5.4228   5.5804   5.5939   5.6339   5.6562   5.6633   5.7378   5.7836
     6.5922   6.7035   7.1784   7.2878   7.3189   7.4126   7.4439   7.9673
     8.1560   8.2055   8.2167   8.3022   8.3425   8.3577   8.4248   8.5663
     8.6084   8.6640   9.5593  11.6179  11.7150  13.7955  14.2728  14.3110
    14.8169  14.9780  15.1631  15.4235  15.6081  15.6135  15.7014

     occupation numbers 
     1.0000   1.0000   1.0000   1.0000   1.0000   1.0000   1.0000   1.0000
     1.0000   1.0000   1.0000   1.0000   1.0000   1.0000   1.0000   1.0000
     1.0000   1.0000   1.0000   1.0000   1.0000   1.0000   1.0000   1.0000
     1.0000   1.0000   1.0000   1.0000   1.0000   1.0000   1.0000   1.0000
     1.0000   1.0000   1.0000   1.0000   1.0000   1.0000   1.0000   1.0000
     1.0000   1.0000   1.0000   1.0000   1.0000   1.0000   1.0000   1.0000
     1.0000   1.0000   1.0000   1.0000   1.0000   1.0000   1.0000   1.0000
     1.0000   1.0000   1.0000   1.0000   1.0000   1.0000   1.0000   1.0000
     1.0000   1.0000   0.0865   0.0000   0.0000   0.0000   0.0000   0.0000
     0.0000   0.0000   0.0000   0.0000   0.0000   0.0000   0.0000

          k = 0.0000 0.2000 0.4042 ( 18132 PWs)   bands (ev):

   -29.3271 -29.3193 -29.3176 -29.3111 -10.8234 -10.7980 -10.7750 -10.7381
   -10.5270 -10.4269 -10.3761 -10.3660 -10.3570 -10.3523 -10.3100 -10.2505
    -8.2871  -7.7768  -7.6082  -7.5293  -7.4638  -7.4277  -7.3017  -7.2969
     2.6006   2.8533   3.4601   3.6055   3.6057   4.4445   4.6685   4.8845
     4.9012   4.9014   4.9292   4.9355   5.0400   5.1974   5.3203   5.4271
     5.4983   5.5584   5.6033   5.6119   5.6977   5.7429   5.7671   5.8321
     6.6956   6.8504   6.8737   7.1506   7.1761   7.2991   7.5132   7.8134
     8.0703   8.1364   8.1686   8.1937   8.2337   8.2593   8.3286   8.3294
     8.4477   8.6262   9.6254  11.6362  12.1936  14.0658  14.1457  14.7447
    14.7528  14.8220  15.2838  15.5822  15.7341  15.7750  16.0202

     occupation numbers 
     1.0000   1.0000   1.0000   1.0000   1.0000   1.0000   1.0000   1.0000
     1.0000   1.0000   1.0000   1.0000   1.0000   1.0000   1.0000   1.0000
     1.0000   1.0000   1.0000   1.0000   1.0000   1.0000   1.0000   1.0000
     1.0000   1.0000   1.0000   1.0000   1.0000   1.0000   1.0000   1.0000
     1.0000   1.0000   1.0000   1.0000   1.0000   1.0000   1.0000   1.0000
     1.0000   1.0000   1.0000   1.0000   1.0000   1.0000   1.0000   1.0000
     1.0000   1.0000   1.0000   1.0000   1.0000   1.0000   1.0000   1.0000
     1.0000   1.0000   1.0000   1.0000   1.0000   1.0000   1.0000   1.0000
     1.0000   1.0000   0.0149   0.0000   0.0000   0.0000   0.0000   0.0000
     0.0000   0.0000   0.0000   0.0000   0.0000   0.0000   0.0000

          k = 0.0000 0.2000 0.6063 ( 18145 PWs)   bands (ev):

   -29.3094 -29.3024 -29.3008 -29.2942 -10.7800 -10.7093 -10.7032 -10.6665
   -10.6433 -10.5620 -10.5520 -10.4069 -10.3679 -10.3504 -10.3406 -10.3313
    -8.0373  -7.7336  -7.6460  -7.4744  -7.4524  -7.4179  -7.3926  -7.3807
     2.7200   2.8827   3.4734   3.6394   3.7512   4.4066   4.6063   4.6852
     4.6862   4.7378   4.7855   4.8725   4.9908   5.2172   5.2294   5.4358
     5.5148   5.5248   5.6007   5.6379   5.7271   5.8948   5.9563   5.9955
     6.5563   6.7430   7.0440   7.0528   7.1150   7.1231   7.4054   7.6550
     7.9925   7.9988   8.0428   8.0801   8.1546   8.1753   8.2207   8.2297
     8.2418   8.6902   9.7250  11.6505  12.8317  13.0785  14.3053  14.3652
    15.5031  15.5292  15.5391  15.6734  15.7944  15.9449  16.2518

     occupation numbers 
     1.0000   1.0000   1.0000   1.0000   1.0000   1.0000   1.0000   1.0000
     1.0000   1.0000   1.0000   1.0000   1.0000   1.0000   1.0000   1.0000
     1.0000   1.0000   1.0000   1.0000   1.0000   1.0000   1.0000   1.0000
     1.0000   1.0000   1.0000   1.0000   1.0000   1.0000   1.0000   1.0000
     1.0000   1.0000   1.0000   1.0000   1.0000   1.0000   1.0000   1.0000
     1.0000   1.0000   1.0000   1.0000   1.0000   1.0000   1.0000   1.0000
     1.0000   1.0000   1.0000   1.0000   1.0000   1.0000   1.0000   1.0000
     1.0000   1.0000   1.0000   1.0000   1.0000   1.0000   1.0000   1.0000
     1.0000   1.0000  -0.0011   0.0000   0.0000   0.0000   0.0000   0.0000
     0.0000   0.0000   0.0000   0.0000   0.0000   0.0000   0.0000

          k = 0.0000 0.2000 0.8084 ( 18139 PWs)   bands (ev):

   -29.2916 -29.2855 -29.2840 -29.2772 -11.0154 -10.8016 -10.7478 -10.6000
   -10.5727 -10.5487 -10.5395 -10.4996 -10.3372 -10.3237 -10.3150 -10.3055
    -7.8245  -7.8124  -7.7733  -7.5419  -7.4927  -7.3531  -7.3466  -7.3391
     2.8358   2.9111   3.4872   3.6715   3.8892   4.3351   4.4286   4.4648
     4.5640   4.5934   4.6525   4.8077   4.9361   5.0032   5.2495   5.4477
     5.4749   5.4763   5.5727   5.5783   5.9348   5.9549   6.1679   6.2472
     6.5471   6.6257   6.9381   6.9454   7.1389   7.1620   7.2566   7.7643
     7.8016   7.8340   7.9412   7.9662   8.0418   8.0555   8.1475   8.1605
     8.4065   8.7506   9.8465  11.6629  12.0815  13.5320  13.8297  14.2090
    15.4927  15.8604  16.0216  16.1463  16.1489  16.2863  16.3204

     occupation numbers 
     1.0000   1.0000   1.0000   1.0000   1.0000   1.0000   1.0000   1.0000
     1.0000   1.0000   1.0000   1.0000   1.0000   1.0000   1.0000   1.0000
     1.0000   1.0000   1.0000   1.0000   1.0000   1.0000   1.0000   1.0000
     1.0000   1.0000   1.0000   1.0000   1.0000   1.0000   1.0000   1.0000
     1.0000   1.0000   1.0000   1.0000   1.0000   1.0000   1.0000   1.0000
     1.0000   1.0000   1.0000   1.0000   1.0000   1.0000   1.0000   1.0000
     1.0000   1.0000   1.0000   1.0000   1.0000   1.0000   1.0000   1.0000
     1.0000   1.0000   1.0000   1.0000   1.0000   1.0000   1.0000   1.0000
     1.0000   1.0001   0.0000   0.0000   0.0000   0.0000   0.0000   0.0000
     0.0000   0.0000   0.0000   0.0000   0.0000   0.0000   0.0000

          k = 0.0000 0.2000 1.0105 ( 18137 PWs)   bands (ev):

   -29.2785 -29.2731 -29.2717 -29.2646 -11.1731 -10.9325 -10.8793 -10.6918
   -10.4673 -10.4552 -10.4504 -10.4354 -10.3128 -10.3006 -10.2962 -10.2864
    -7.9071  -7.8693  -7.6839  -7.6422  -7.5727  -7.3054  -7.2700  -7.2541
     2.9178   2.9314   3.4976   3.6946   3.9877   4.2136   4.2347   4.3804
     4.4874   4.5141   4.5539   4.6935   4.8714   4.8925   5.2490   5.4473
     5.4536   5.4610   5.5198   5.5281   5.9979   6.0837   6.3143   6.3543
     6.5158   6.7084   6.8173   6.8746   7.1068   7.2390   7.4065   7.6178
     7.7333   7.8451   7.9047   7.9300   7.9306   7.9697   8.0907   8.1568
     8.5606   8.7949   9.9603  11.2898  11.6770  13.4000  13.9735  14.2053
    15.4579  15.9193  15.9254  16.0234  16.0806  16.3623  16.4442

     occupation numbers 
     1.0000   1.0000   1.0000   1.0000   1.0000   1.0000   1.0000   1.0000
     1.0000   1.0000   1.0000   1.0000   1.0000   1.0000   1.0000   1.0000
     1.0000   1.0000   1.0000   1.0000   1.0000   1.0000   1.0000   1.0000
     1.0000   1.0000   1.0000   1.0000   1.0000   1.0000   1.0000   1.0000
     1.0000   1.0000   1.0000   1.0000   1.0000   1.0000   1.0000   1.0000
     1.0000   1.0000   1.0000   1.0000   1.0000   1.0000   1.0000   1.0000
     1.0000   1.0000   1.0000   1.0000   1.0000   1.0000   1.0000   1.0000
     1.0000   1.0000   1.0000   1.0000   1.0000   1.0000   1.0000   1.0000
     1.0000   1.0001   0.0000   0.0000   0.0000   0.0000   0.0000   0.0000
     0.0000   0.0000   0.0000   0.0000   0.0000   0.0000   0.0000

          k = 0.0000 0.2000-1.2126 ( 18192 PWs)   bands (ev):

   -29.2736 -29.2685 -29.2671 -29.2599 -11.2284 -10.9802 -10.9263 -10.7303
   -10.4262 -10.4191 -10.4142 -10.4051 -10.3037 -10.2919 -10.2892 -10.2794
    -7.9471  -7.9054  -7.6809  -7.6350  -7.6037  -7.2925  -7.2406  -7.2197
     2.9387   2.9472   3.5015   3.7031   4.0242   4.1563   4.1627   4.3603
     4.4476   4.4960   4.5159   4.6285   4.8434   4.8758   5.2443   5.4374
     5.4497   5.4717   5.4947   5.5044   6.0135   6.1341   6.3346   6.4353
     6.4822   6.6234   6.7596   7.0581   7.0955   7.2784   7.4614   7.5687
     7.6999   7.8106   7.8935   7.9003   7.9247   7.9664   8.0659   8.1570
     8.6263   8.8114  10.0102  10.9756  11.6796  13.2268  13.8624  14.5554
    15.4449  15.8462  15.9498  15.9853  16.1029  16.2638  16.4162

     occupation numbers 
     1.0000   1.0000   1.0000   1.0000   1.0000   1.0000   1.0000   1.0000
     1.0000   1.0000   1.0000   1.0000   1.0000   1.0000   1.0000   1.0000
     1.0000   1.0000   1.0000   1.0000   1.0000   1.0000   1.0000   1.0000
     1.0000   1.0000   1.0000   1.0000   1.0000   1.0000   1.0000   1.0000
     1.0000   1.0000   1.0000   1.0000   1.0000   1.0000   1.0000   1.0000
     1.0000   1.0000   1.0000   1.0000   1.0000   1.0000   1.0000   1.0000
     1.0000   1.0000   1.0000   1.0000   1.0000   1.0000   1.0000   1.0000
     1.0000   1.0000   1.0000   1.0000   1.0000   1.0000   1.0000   1.0000
     1.0000   1.0002   0.0000   0.0000   0.0000   0.0000   0.0000   0.0000
     0.0000   0.0000   0.0000   0.0000   0.0000   0.0000   0.0000

          k = 0.0000 0.4000 0.0000 ( 18106 PWs)   bands (ev):

   -29.3420 -29.3388 -29.3321 -29.3296 -10.9156 -10.8936 -10.7806 -10.7214
   -10.6163 -10.5730 -10.3885 -10.3852 -10.1142 -10.1088 -10.0962 -10.0902
    -8.4059  -8.1559  -7.5810  -7.4298  -7.4064  -7.3755  -7.3364  -7.2584
     2.7590   2.8946   3.5693   3.6593   3.7112   4.0873   4.5079   4.5132
     4.7943   4.9238   5.0607   5.0920   5.1837   5.2396   5.2700   5.2917
     5.5106   5.5249   5.5365   5.5545   5.5723   5.5836   5.7558   5.7608
     6.7926   7.0094   7.0767   7.2768   7.4585   7.4967   7.8051   8.1298
     8.1434   8.1603   8.2863   8.3230   8.3627   8.3964   8.3990   8.5676
     8.5697   8.6694  10.2287  11.0398  12.1255  12.8980  14.4318  14.5123
    14.8745  14.9513  15.0552  15.0774  15.5470  15.5978  15.6751

     occupation numbers 
     1.0000   1.0000   1.0000   1.0000   1.0000   1.0000   1.0000   1.0000
     1.0000   1.0000   1.0000   1.0000   1.0000   1.0000   1.0000   1.0000
     1.0000   1.0000   1.0000   1.0000   1.0000   1.0000   1.0000   1.0000
     1.0000   1.0000   1.0000   1.0000   1.0000   1.0000   1.0000   1.0000
     1.0000   1.0000   1.0000   1.0000   1.0000   1.0000   1.0000   1.0000
     1.0000   1.0000   1.0000   1.0000   1.0000   1.0000   1.0000   1.0000
     1.0000   1.0000   1.0000   1.0000   1.0000   1.0000   1.0000   1.0000
     1.0000   1.0000   1.0000   1.0000   1.0000   1.0000   1.0000   1.0000
     1.0000   1.0000  -0.0086   0.0000   0.0000   0.0000   0.0000   0.0000
     0.0000   0.0000   0.0000   0.0000   0.0000   0.0000   0.0000

          k = 0.0000 0.4000 0.2021 ( 18125 PWs)   bands (ev):

   -29.3373 -29.3342 -29.3277 -29.3252 -10.8876 -10.8665 -10.7616 -10.7027
   -10.6076 -10.5616 -10.3818 -10.3784 -10.1999 -10.1848 -10.1500 -10.1383
    -8.3295  -8.0989  -7.5597  -7.4261  -7.4160  -7.3785  -7.3625  -7.2867
     2.7853   2.9082   3.5761   3.6706   3.7407   4.0995   4.5091   4.5243
     4.7812   4.9115   5.0160   5.0413   5.1452   5.1860   5.2988   5.3304
     5.4844   5.5027   5.5242   5.5763   5.6110   5.6251   5.7495   5.7679
     6.7884   7.0308   7.0535   7.3147   7.3738   7.3755   7.7596   8.0904
     8.1841   8.2068   8.2504   8.2748   8.2771   8.3126   8.3411   8.4524
     8.5750   8.6287  10.2454  11.0497  12.2917  13.0494  14.6008  14.6464
    14.8520  14.9100  15.0191  15.0469  15.6701  15.6889  15.7459

     occupation numbers 
     1.0000   1.0000   1.0000   1.0000   1.0000   1.0000   1.0000   1.0000
     1.0000   1.0000   1.0000   1.0000   1.0000   1.0000   1.0000   1.0000
     1.0000   1.0000   1.0000   1.0000   1.0000   1.0000   1.0000   1.0000
     1.0000   1.0000   1.0000   1.0000   1.0000   1.0000   1.0000   1.0000
     1.0000   1.0000   1.0000   1.0000   1.0000   1.0000   1.0000   1.0000
     1.0000   1.0000   1.0000   1.0000   1.0000   1.0000   1.0000   1.0000
     1.0000   1.0000   1.0000   1.0000   1.0000   1.0000   1.0000   1.0000
     1.0000   1.0000   1.0000   1.0000   1.0000   1.0000   1.0000   1.0000
     1.0000   1.0000  -0.0073   0.0000   0.0000   0.0000   0.0000   0.0000
     0.0000   0.0000   0.0000   0.0000   0.0000   0.0000   0.0000

          k = 0.0000 0.4000 0.4042 ( 18121 PWs)   bands (ev):

   -29.3246 -29.3217 -29.3154 -29.3129 -10.8082 -10.7897 -10.7154 -10.6525
   -10.6091 -10.5368 -10.3779 -10.3655 -10.3632 -10.3598 -10.2843 -10.2644
    -8.1516  -7.9679  -7.5069  -7.4656  -7.4181  -7.4082  -7.3903  -7.3637
     2.8550   2.9435   3.5959   3.7008   3.8178   4.1283   4.5114   4.5545
     4.7437   4.8726   4.8972   4.9016   5.0365   5.0432   5.2636   5.3230
     5.5202   5.5233   5.5280   5.5533   5.7336   5.7601   5.7716   5.7897
     6.7476   6.8399   7.1760   7.2091   7.2169   7.4193   7.6407   7.9394
     8.0085   8.1218   8.1454   8.1594   8.1987   8.2274   8.2999   8.3256
     8.5197   8.5675  10.2904  11.0742  12.7141  13.4136  14.2371  14.4818
    15.0429  15.0641  15.3305  15.4209  15.6587  15.7682  16.0489

     occupation numbers 
     1.0000   1.0000   1.0000   1.0000   1.0000   1.0000   1.0000   1.0000
     1.0000   1.0000   1.0000   1.0000   1.0000   1.0000   1.0000   1.0000
     1.0000   1.0000   1.0000   1.0000   1.0000   1.0000   1.0000   1.0000
     1.0000   1.0000   1.0000   1.0000   1.0000   1.0000   1.0000   1.0000
     1.0000   1.0000   1.0000   1.0000   1.0000   1.0000   1.0000   1.0000
     1.0000   1.0000   1.0000   1.0000   1.0000   1.0000   1.0000   1.0000
     1.0000   1.0000   1.0000   1.0000   1.0000   1.0000   1.0000   1.0000
     1.0000   1.0000   1.0000   1.0000   1.0000   1.0000   1.0000   1.0000
     1.0000   1.0000  -0.0044   0.0000   0.0000   0.0000   0.0000   0.0000
     0.0000   0.0000   0.0000   0.0000   0.0000   0.0000   0.0000

          k = 0.0000 0.4000 0.6063 ( 18136 PWs)   bands (ev):

   -29.3072 -29.3045 -29.2987 -29.2961 -10.7528 -10.7232 -10.6920 -10.6778
   -10.5993 -10.5666 -10.5059 -10.4333 -10.4111 -10.3913 -10.3378 -10.3342
    -7.9563  -7.8446  -7.5805  -7.4928  -7.4455  -7.4143  -7.4086  -7.3861
     2.9444   2.9882   3.6256   3.7413   3.9159   4.1584   4.5123   4.5935
     4.6804   4.7156   4.7232   4.8138   4.8266   4.9001   5.0740   5.2037
     5.5088   5.5191   5.6421   5.6977   5.7157   5.8216   5.9983   6.0056
     6.5889   6.6339   7.1182   7.1304   7.3470   7.4856   7.5634   7.5883
     7.8141   7.8689   7.9970   8.0516   8.0679   8.1142   8.3720   8.3754
     8.4335   8.5336  10.3538  11.1052  13.2463  13.3966  13.7898  13.8508
    15.6456  15.6746  15.7158  15.7985  15.8117  15.9760  16.2234

     occupation numbers 
     1.0000   1.0000   1.0000   1.0000   1.0000   1.0000   1.0000   1.0000
     1.0000   1.0000   1.0000   1.0000   1.0000   1.0000   1.0000   1.0000
     1.0000   1.0000   1.0000   1.0000   1.0000   1.0000   1.0000   1.0000
     1.0000   1.0000   1.0000   1.0000   1.0000   1.0000   1.0000   1.0000
     1.0000   1.0000   1.0000   1.0000   1.0000   1.0000   1.0000   1.0000
     1.0000   1.0000   1.0000   1.0000   1.0000   1.0000   1.0000   1.0000
     1.0000   1.0000   1.0000   1.0000   1.0000   1.0000   1.0000   1.0000
     1.0000   1.0000   1.0000   1.0000   1.0000   1.0000   1.0000   1.0000
     1.0000   1.0000  -0.0019   0.0000   0.0000   0.0000   0.0000   0.0000
     0.0000   0.0000   0.0000   0.0000   0.0000   0.0000   0.0000

          k = 0.0000 0.4000 0.8084 ( 18169 PWs)   bands (ev):

   -29.2897 -29.2874 -29.2819 -29.2793 -10.9584 -10.8797 -10.7080 -10.6542
   -10.5651 -10.5560 -10.4679 -10.4389 -10.3935 -10.3744 -10.3121 -10.3084
    -7.8020  -7.7937  -7.7110  -7.6204  -7.4470  -7.3937  -7.3590  -7.3548
     3.0263   3.0290   3.6592   3.7816   4.0103   4.1815   4.5036   4.5082
     4.5378   4.5528   4.6342   4.6665   4.7304   4.7693   4.8705   5.0785
     5.4838   5.4892   5.7008   5.7037   5.8426   5.8534   6.2682   6.2695
     6.5362   6.5475   7.0497   7.1138   7.2808   7.3234   7.5201   7.5515
     7.7061   7.7301   7.8847   7.9548   7.9616   8.0291   8.2234   8.4429
     8.4901   8.5587  10.4260  11.1363  12.5311  13.1514  13.7743  14.0365
    15.6334  15.8323  16.2288  16.2614  16.2810  16.3827  16.3955

     occupation numbers 
     1.0000   1.0000   1.0000   1.0000   1.0000   1.0000   1.0000   1.0000
     1.0000   1.0000   1.0000   1.0000   1.0000   1.0000   1.0000   1.0000
     1.0000   1.0000   1.0000   1.0000   1.0000   1.0000   1.0000   1.0000
     1.0000   1.0000   1.0000   1.0000   1.0000   1.0000   1.0000   1.0000
     1.0000   1.0000   1.0000   1.0000   1.0000   1.0000   1.0000   1.0000
     1.0000   1.0000   1.0000   1.0000   1.0000   1.0000   1.0000   1.0000
     1.0000   1.0000   1.0000   1.0000   1.0000   1.0000   1.0000   1.0000
     1.0000   1.0000   1.0000   1.0000   1.0000   1.0000   1.0000   1.0000
     1.0000   1.0000  -0.0003   0.0000   0.0000   0.0000   0.0000   0.0000
     0.0000   0.0000   0.0000   0.0000   0.0000   0.0000   0.0000

          k = 0.0000 0.4000 1.0105 ( 18164 PWs)   bands (ev):

   -29.2768 -29.2747 -29.2695 -29.2668 -11.1047 -11.0137 -10.8261 -10.7553
   -10.4635 -10.4589 -10.4057 -10.3916 -10.3538 -10.3408 -10.2932 -10.2895
    -7.8248  -7.7886  -7.7261  -7.7109  -7.4764  -7.3609  -7.3185  -7.2942
     3.0569   3.0813   3.6869   3.8122   4.0855   4.2048   4.3465   4.3548
     4.4185   4.4816   4.5873   4.5877   4.6949   4.7244   4.7482   4.9837
     5.4577   5.4694   5.6753   5.6993   5.8763   5.8975   6.3493   6.3954
     6.7029   6.8252   6.9916   7.0894   7.1140   7.1639   7.3782   7.5855
     7.6454   7.8101   7.8230   7.8819   7.9080   7.9718   8.1153   8.4604
     8.4958   8.6641  10.4927  11.1636  11.8538  12.5964  14.1160  14.2047
    15.6243  15.8586  16.0482  16.1856  16.4038  16.6209  16.8274

     occupation numbers 
     1.0000   1.0000   1.0000   1.0000   1.0000   1.0000   1.0000   1.0000
     1.0000   1.0000   1.0000   1.0000   1.0000   1.0000   1.0000   1.0000
     1.0000   1.0000   1.0000   1.0000   1.0000   1.0000   1.0000   1.0000
     1.0000   1.0000   1.0000   1.0000   1.0000   1.0000   1.0000   1.0000
     1.0000   1.0000   1.0000   1.0000   1.0000   1.0000   1.0000   1.0000
     1.0000   1.0000   1.0000   1.0000   1.0000   1.0000   1.0000   1.0000
     1.0000   1.0000   1.0000   1.0000   1.0000   1.0000   1.0000   1.0000
     1.0000   1.0000   1.0000   1.0000   1.0000   1.0000   1.0000   1.0000
     1.0000   1.0000   0.0000   0.0000   0.0000   0.0000   0.0000   0.0000
     0.0000   0.0000   0.0000   0.0000   0.0000   0.0000   0.0000

          k = 0.0000 0.4000-1.2126 ( 18158 PWs)   bands (ev):

   -29.2720 -29.2701 -29.2650 -29.2622 -11.1567 -11.0624 -10.8694 -10.7947
   -10.4240 -10.4213 -10.3805 -10.3704 -10.3383 -10.3272 -10.2862 -10.2825
    -7.8633  -7.7985  -7.7635  -7.6867  -7.4883  -7.3499  -7.3015  -7.2666
     3.0667   3.1003   3.6979   3.8242   4.1200   4.2503   4.2509   4.2826
     4.3618   4.4437   4.5561   4.5697   4.7073   4.7086   4.7109   4.9468
     5.4480   5.4611   5.6526   5.6985   5.8845   5.9016   6.3729   6.4140
     6.9498   6.9535   6.9559   7.0276   7.0402   7.1335   7.3137   7.4846
     7.6918   7.8010   7.8497   7.8581   7.8987   7.9401   8.0774   8.4518
     8.5169   8.7072  10.5231  11.1803  11.5840  12.3778  14.1233  14.3885
    15.6209  15.8685  15.9797  16.1385  16.4833  16.6847  16.9054

     occupation numbers 
     1.0000   1.0000   1.0000   1.0000   1.0000   1.0000   1.0000   1.0000
     1.0000   1.0000   1.0000   1.0000   1.0000   1.0000   1.0000   1.0000
     1.0000   1.0000   1.0000   1.0000   1.0000   1.0000   1.0000   1.0000
     1.0000   1.0000   1.0000   1.0000   1.0000   1.0000   1.0000   1.0000
     1.0000   1.0000   1.0000   1.0000   1.0000   1.0000   1.0000   1.0000
     1.0000   1.0000   1.0000   1.0000   1.0000   1.0000   1.0000   1.0000
     1.0000   1.0000   1.0000   1.0000   1.0000   1.0000   1.0000   1.0000
     1.0000   1.0000   1.0000   1.0000   1.0000   1.0000   1.0000   1.0000
     1.0000   1.0001   0.0000   0.0000   0.0000   0.0000   0.0000   0.0000
     0.0000   0.0000   0.0000   0.0000   0.0000   0.0000   0.0000

          k = 0.2000 0.2000 0.0000 ( 18087 PWs)   bands (ev):

   -29.3436 -29.3353 -29.3353 -29.3285 -10.8944 -10.8890 -10.8439 -10.8289
   -10.4712 -10.4441 -10.4397 -10.4393 -10.1168 -10.1027 -10.1027 -10.0872
    -8.5309  -7.8627  -7.8622  -7.4505  -7.4067  -7.3626  -7.3059  -7.1863
     2.6120   2.9028   3.4682   3.5440   3.5867   4.4795   4.5634   4.7794
     5.0353   5.0556   5.0782   5.0784   5.1539   5.1543   5.2179   5.2694
     5.3419   5.3666   5.5490   5.5897   5.6745   5.6764   5.6790   5.6813
     6.7267   6.7304   7.2950   7.3721   7.5145   7.5196   7.5317   7.8851
     8.0862   8.3000   8.3105   8.3565   8.4406   8.4513   8.5165   8.5511
     8.6904   8.6981   9.6969  11.4584  11.7083  13.7304  13.7408  14.2559
    14.9292  15.1410  15.1585  15.2494  15.5046  15.6608  15.6644

     occupation numbers 
     1.0000   1.0000   1.0000   1.0000   1.0000   1.0000   1.0000   1.0000
     1.0000   1.0000   1.0000   1.0000   1.0000   1.0000   1.0000   1.0000
     1.0000   1.0000   1.0000   1.0000   1.0000   1.0000   1.0000   1.0000
     1.0000   1.0000   1.0000   1.0000   1.0000   1.0000   1.0000   1.0000
     1.0000   1.0000   1.0000   1.0000   1.0000   1.0000   1.0000   1.0000
     1.0000   1.0000   1.0000   1.0000   1.0000   1.0000   1.0000   1.0000
     1.0000   1.0000   1.0000   1.0000   1.0000   1.0000   1.0000   1.0000
     1.0000   1.0000   1.0000   1.0000   1.0000   1.0000   1.0000   1.0000
     1.0000   1.0000   0.0222   0.0000   0.0000   0.0000   0.0000   0.0000
     0.0000   0.0000   0.0000   0.0000   0.0000   0.0000   0.0000

          k = 0.2000 0.2000 0.2021 ( 18103 PWs)   bands (ev):

   -29.3390 -29.3308 -29.3308 -29.3241 -10.8680 -10.8629 -10.8198 -10.8041
   -10.4728 -10.4348 -10.4332 -10.4327 -10.2073 -10.1667 -10.1667 -10.1332
    -8.4422  -7.8227  -7.8224  -7.4418  -7.4258  -7.3821  -7.3243  -7.2109
     2.6444   2.9111   3.4713   3.5818   3.5981   4.4736   4.5569   4.7687
     5.0346   5.0363   5.0462   5.0548   5.0974   5.1002   5.2337   5.2881
     5.3682   5.4100   5.5861   5.6329   5.6580   5.6583   5.6622   5.6673
     6.7638   6.7681   7.2742   7.3168   7.4063   7.4586   7.4776   7.9179
     8.0849   8.1776   8.2461   8.3194   8.3543   8.4950   8.5073   8.5524
     8.5968   8.6099   9.7185  11.4629  11.8912  13.8786  13.8918  14.4065
    14.7699  15.1366  15.1523  15.2776  15.6467  15.6757  15.6834

     occupation numbers 
     1.0000   1.0000   1.0000   1.0000   1.0000   1.0000   1.0000   1.0000
     1.0000   1.0000   1.0000   1.0000   1.0000   1.0000   1.0000   1.0000
     1.0000   1.0000   1.0000   1.0000   1.0000   1.0000   1.0000   1.0000
     1.0000   1.0000   1.0000   1.0000   1.0000   1.0000   1.0000   1.0000
     1.0000   1.0000   1.0000   1.0000   1.0000   1.0000   1.0000   1.0000
     1.0000   1.0000   1.0000   1.0000   1.0000   1.0000   1.0000   1.0000
     1.0000   1.0000   1.0000   1.0000   1.0000   1.0000   1.0000   1.0000
     1.0000   1.0000   1.0000   1.0000   1.0000   1.0000   1.0000   1.0000
     1.0000   1.0000   0.0142   0.0000   0.0000   0.0000   0.0000   0.0000
     0.0000   0.0000   0.0000   0.0000   0.0000   0.0000   0.0000

          k = 0.2000 0.2000 0.4042 ( 18132 PWs)   bands (ev):

   -29.3261 -29.3185 -29.3185 -29.3118 -10.7948 -10.7905 -10.7528 -10.7343
   -10.5418 -10.4297 -10.4293 -10.4094 -10.3507 -10.3142 -10.3141 -10.2555
    -8.2372  -7.7373  -7.7351  -7.4670  -7.4265  -7.4181  -7.3778  -7.2802
     2.7320   2.9333   3.4796   3.6279   3.6818   4.4541   4.5346   4.7373
     4.9247   4.9338   4.9377   4.9412   5.0343   5.0882   5.2429   5.3103
     5.4157   5.5475   5.5911   5.5928   5.6110   5.6259   5.7601   5.7840
     6.8576   6.8585   6.9411   7.2142   7.3191   7.3509   7.4989   7.8586
     7.9186   8.0377   8.1002   8.2249   8.2463   8.3719   8.3822   8.5006
     8.5132   8.5840   9.7783  11.4752  12.3572  14.1078  14.1721  14.1997
    14.8537  15.1616  15.1676  15.6083  15.7376  15.7508  15.8159

     occupation numbers 
     1.0000   1.0000   1.0000   1.0000   1.0000   1.0000   1.0000   1.0000
     1.0000   1.0000   1.0000   1.0000   1.0000   1.0000   1.0000   1.0000
     1.0000   1.0000   1.0000   1.0000   1.0000   1.0000   1.0000   1.0000
     1.0000   1.0000   1.0000   1.0000   1.0000   1.0000   1.0000   1.0000
     1.0000   1.0000   1.0000   1.0000   1.0000   1.0000   1.0000   1.0000
     1.0000   1.0000   1.0000   1.0000   1.0000   1.0000   1.0000   1.0000
     1.0000   1.0000   1.0000   1.0000   1.0000   1.0000   1.0000   1.0000
     1.0000   1.0000   1.0000   1.0000   1.0000   1.0000   1.0000   1.0000
     1.0000   1.0002   0.0026   0.0000   0.0000   0.0000   0.0000   0.0000
     0.0000   0.0000   0.0000   0.0000   0.0000   0.0000   0.0000

          k = 0.2000 0.2000 0.6063 ( 18138 PWs)   bands (ev):

   -29.3086 -29.3016 -29.3016 -29.2949 -10.7696 -10.7044 -10.7018 -10.6622
   -10.6333 -10.5512 -10.5504 -10.4109 -10.3742 -10.3590 -10.3521 -10.3517
    -8.0080  -7.7148  -7.6971  -7.4593  -7.4548  -7.4302  -7.3981  -7.3686
     2.8491   2.9628   3.4911   3.6663   3.8115   4.4189   4.4886   4.6879
     4.7199   4.7244   4.7773   4.7954   5.0079   5.1360   5.1582   5.3071
     5.3919   5.4966   5.5082   5.5827   5.6812   5.7874   5.9806   6.0076
     6.6287   6.9112   6.9370   7.1203   7.2100   7.2629   7.4876   7.6261
     7.8815   7.9098   7.9102   8.1074   8.1441   8.1561   8.1600   8.4698
     8.5668   8.6239   9.8668  11.4915  12.9621  13.1815  14.1655  14.2169
    15.4301  15.4345  15.5627  15.8623  15.9345  15.9483  16.0898

     occupation numbers 
     1.0000   1.0000   1.0000   1.0000   1.0000   1.0000   1.0000   1.0000
     1.0000   1.0000   1.0000   1.0000   1.0000   1.0000   1.0000   1.0000
     1.0000   1.0000   1.0000   1.0000   1.0000   1.0000   1.0000   1.0000
     1.0000   1.0000   1.0000   1.0000   1.0000   1.0000   1.0000   1.0000
     1.0000   1.0000   1.0000   1.0000   1.0000   1.0000   1.0000   1.0000
     1.0000   1.0000   1.0000   1.0000   1.0000   1.0000   1.0000   1.0000
     1.0000   1.0000   1.0000   1.0000   1.0000   1.0000   1.0000   1.0000
     1.0000   1.0000   1.0000   1.0000   1.0000   1.0000   1.0000   1.0000
     1.0000   1.0019  -0.0004   0.0000   0.0000   0.0000   0.0000   0.0000
     0.0000   0.0000   0.0000   0.0000   0.0000   0.0000   0.0000

          k = 0.2000 0.2000 0.8084 ( 18153 PWs)   bands (ev):

   -29.2909 -29.2847 -29.2847 -29.2780 -10.9952 -10.7864 -10.7864 -10.6336
   -10.5379 -10.5358 -10.5245 -10.4913 -10.3387 -10.3333 -10.3252 -10.3247
    -7.8116  -7.7912  -7.7615  -7.5511  -7.4956  -7.3681  -7.3555  -7.3476
     2.9627   2.9913   3.5026   3.7028   3.9359   4.3629   4.3899   4.5027
     4.5478   4.6051   4.6589   4.6601   4.9441   4.9793   5.1862   5.2731
     5.3909   5.3921   5.4207   5.5822   5.7348   6.0502   6.1811   6.2870
     6.5697   6.8265   6.8972   6.9781   7.2102   7.2529   7.3152   7.7404
     7.7480   7.7625   7.8434   7.9747   7.9948   7.9970   8.0653   8.4490
     8.6534   8.6751   9.9722  11.5077  12.2354  13.6019  13.8261  13.8932
    15.7304  15.7345  15.9182  16.0984  16.2233  16.3831  16.3832

     occupation numbers 
     1.0000   1.0000   1.0000   1.0000   1.0000   1.0000   1.0000   1.0000
     1.0000   1.0000   1.0000   1.0000   1.0000   1.0000   1.0000   1.0000
     1.0000   1.0000   1.0000   1.0000   1.0000   1.0000   1.0000   1.0000
     1.0000   1.0000   1.0000   1.0000   1.0000   1.0000   1.0000   1.0000
     1.0000   1.0000   1.0000   1.0000   1.0000   1.0000   1.0000   1.0000
     1.0000   1.0000   1.0000   1.0000   1.0000   1.0000   1.0000   1.0000
     1.0000   1.0000   1.0000   1.0000   1.0000   1.0000   1.0000   1.0000
     1.0000   1.0000   1.0000   1.0000   1.0000   1.0000   1.0000   1.0000
     1.0000   1.0047  -0.0000   0.0000   0.0000   0.0000   0.0000   0.0000
     0.0000   0.0000   0.0000   0.0000   0.0000   0.0000   0.0000

          k = 0.2000 0.2000 1.0105 ( 18152 PWs)   bands (ev):

   -29.2778 -29.2723 -29.2723 -29.2654 -11.1485 -10.9123 -10.9123 -10.7192
   -10.4495 -10.4485 -10.4389 -10.4349 -10.3124 -10.3110 -10.3020 -10.3015
    -7.8730  -7.8395  -7.6810  -7.6256  -7.5823  -7.3232  -7.2932  -7.2841
     3.0116   3.0435   3.5110   3.7294   4.0275   4.2515   4.2619   4.3949
     4.4768   4.4990   4.5634   4.6140   4.7417   4.9566   5.2298   5.2332
     5.3102   5.3484   5.4030   5.5954   5.7338   6.2924   6.3196   6.3674
     6.6963   6.8078   6.8430   6.8627   7.0976   7.3379   7.3965   7.6313
     7.6571   7.7984   7.8185   7.8589   7.8999   7.9291   8.0177   8.4399
     8.6705   8.7844  10.0687  11.4940  11.5194  13.4713  13.5482  14.1733
    15.8846  15.8942  15.9796  15.9940  16.1362  16.4200  16.4263

     occupation numbers 
     1.0000   1.0000   1.0000   1.0000   1.0000   1.0000   1.0000   1.0000
     1.0000   1.0000   1.0000   1.0000   1.0000   1.0000   1.0000   1.0000
     1.0000   1.0000   1.0000   1.0000   1.0000   1.0000   1.0000   1.0000
     1.0000   1.0000   1.0000   1.0000   1.0000   1.0000   1.0000   1.0000
     1.0000   1.0000   1.0000   1.0000   1.0000   1.0000   1.0000   1.0000
     1.0000   1.0000   1.0000   1.0000   1.0000   1.0000   1.0000   1.0000
     1.0000   1.0000   1.0000   1.0000   1.0000   1.0000   1.0000   1.0000
     1.0000   1.0000   1.0000   1.0000   1.0000   1.0000   1.0000   1.0000
     1.0000   1.0080   0.0000   0.0000   0.0000   0.0000   0.0000   0.0000
     0.0000   0.0000   0.0000   0.0000   0.0000   0.0000   0.0000

          k = 0.2000 0.2000-1.2126 ( 18156 PWs)   bands (ev):

   -29.2730 -29.2677 -29.2677 -29.2608 -11.2025 -10.9587 -10.9587 -10.7568
   -10.4137 -10.4131 -10.4061 -10.4059 -10.3027 -10.3025 -10.2932 -10.2928
    -7.9063  -7.8720  -7.6547  -7.6352  -7.6158  -7.3140  -7.2655  -7.2572
     3.0190   3.0725   3.5140   3.7395   4.0627   4.1927   4.2058   4.3727
     4.4555   4.4576   4.5284   4.6059   4.6564   4.9479   5.2164   5.2543
     5.2792   5.3131   5.4088   5.6023   5.7259   6.3642   6.3849   6.4254
     6.6063   6.7373   6.8287   7.0507   7.0693   7.3740   7.4293   7.5944
     7.6187   7.7637   7.8093   7.8192   7.8686   7.9353   8.0022   8.4376
     8.6760   8.8325  10.1106  11.2015  11.5236  13.3233  13.4032  14.4389
    15.9375  15.9439  15.9557  16.0569  16.1161  16.3655  16.3735

     occupation numbers 
     1.0000   1.0000   1.0000   1.0000   1.0000   1.0000   1.0000   1.0000
     1.0000   1.0000   1.0000   1.0000   1.0000   1.0000   1.0000   1.0000
     1.0000   1.0000   1.0000   1.0000   1.0000   1.0000   1.0000   1.0000
     1.0000   1.0000   1.0000   1.0000   1.0000   1.0000   1.0000   1.0000
     1.0000   1.0000   1.0000   1.0000   1.0000   1.0000   1.0000   1.0000
     1.0000   1.0000   1.0000   1.0000   1.0000   1.0000   1.0000   1.0000
     1.0000   1.0000   1.0000   1.0000   1.0000   1.0000   1.0000   1.0000
     1.0000   1.0000   1.0000   1.0000   1.0000   1.0000   1.0000   1.0000
     1.0000   1.0096   0.0000   0.0000   0.0000   0.0000   0.0000   0.0000
     0.0000   0.0000   0.0000   0.0000   0.0000   0.0000   0.0000

          k = 0.2000 0.4000 0.0000 ( 18074 PWs)   bands (ev):

   -29.3411 -29.3379 -29.3331 -29.3305 -10.8749 -10.8545 -10.7755 -10.7255
   -10.6139 -10.5761 -10.4495 -10.4441 -10.1125 -10.1071 -10.0979 -10.0920
    -8.3284  -8.0823  -7.6849  -7.4779  -7.4097  -7.3840  -7.3112  -7.2374
     2.9059   3.0225   3.5634   3.6523   3.8095   4.1651   4.4017   4.4077
     4.7101   4.8656   5.1025   5.1315   5.1902   5.2126   5.2251   5.2357
     5.3259   5.3297   5.5127   5.5338   5.5625   5.5775   5.6773   5.6790
     6.9521   7.0684   7.2375   7.3050   7.5769   7.5895   7.8221   7.8231
     8.0129   8.1400   8.2442   8.3018   8.3761   8.5057   8.5344   8.6060
     8.7571   8.7601  10.2543  10.9635  12.2521  12.9980  14.0272  14.4727
    14.6250  15.0235  15.1823  15.2138  15.6245  15.6274  15.7222

     occupation numbers 
     1.0000   1.0000   1.0000   1.0000   1.0000   1.0000   1.0000   1.0000
     1.0000   1.0000   1.0000   1.0000   1.0000   1.0000   1.0000   1.0000
     1.0000   1.0000   1.0000   1.0000   1.0000   1.0000   1.0000   1.0000
     1.0000   1.0000   1.0000   1.0000   1.0000   1.0000   1.0000   1.0000
     1.0000   1.0000   1.0000   1.0000   1.0000   1.0000   1.0000   1.0000
     1.0000   1.0000   1.0000   1.0000   1.0000   1.0000   1.0000   1.0000
     1.0000   1.0000   1.0000   1.0000   1.0000   1.0000   1.0000   1.0000
     1.0000   1.0000   1.0000   1.0000   1.0000   1.0000   1.0000   1.0000
     1.0000   1.0000  -0.0019   0.0000   0.0000   0.0000   0.0000   0.0000
     0.0000   0.0000   0.0000   0.0000   0.0000   0.0000   0.0000

          k = 0.2000 0.4000 0.2021 ( 18104 PWs)   bands (ev):

   -29.3364 -29.3333 -29.3286 -29.3260 -10.8493 -10.8297 -10.7566 -10.7064
   -10.6057 -10.5646 -10.4429 -10.4376 -10.1892 -10.1756 -10.1530 -10.1412
    -8.2617  -8.0344  -7.6665  -7.4816  -7.4076  -7.3926  -7.3293  -7.2585
     2.9324   3.0350   3.5691   3.6647   3.8350   4.1739   4.4077   4.4098
     4.7069   4.8596   5.0576   5.0804   5.1502   5.1838   5.2230   5.2361
     5.3550   5.3683   5.4872   5.5013   5.6137   5.6272   5.6620   5.6629
     6.9446   7.1008   7.1762   7.3360   7.4724   7.5121   7.7771   7.8516
     7.9910   8.0955   8.1865   8.2396   8.2790   8.4408   8.5083   8.5589
     8.7617   8.7705  10.2694  10.9720  12.4147  13.1436  14.1446  14.5144
    14.7466  15.1015  15.1128  15.1187  15.6326  15.6985  15.7530

     occupation numbers 
     1.0000   1.0000   1.0000   1.0000   1.0000   1.0000   1.0000   1.0000
     1.0000   1.0000   1.0000   1.0000   1.0000   1.0000   1.0000   1.0000
     1.0000   1.0000   1.0000   1.0000   1.0000   1.0000   1.0000   1.0000
     1.0000   1.0000   1.0000   1.0000   1.0000   1.0000   1.0000   1.0000
     1.0000   1.0000   1.0000   1.0000   1.0000   1.0000   1.0000   1.0000
     1.0000   1.0000   1.0000   1.0000   1.0000   1.0000   1.0000   1.0000
     1.0000   1.0000   1.0000   1.0000   1.0000   1.0000   1.0000   1.0000
     1.0000   1.0000   1.0000   1.0000   1.0000   1.0000   1.0000   1.0000
     1.0000   1.0000  -0.0015   0.0000   0.0000   0.0000   0.0000   0.0000
     0.0000   0.0000   0.0000   0.0000   0.0000   0.0000   0.0000

          k = 0.2000 0.4000 0.4042 ( 18133 PWs)   bands (ev):

   -29.3238 -29.3208 -29.3163 -29.3138 -10.7782 -10.7608 -10.7107 -10.6547
   -10.6088 -10.5393 -10.4352 -10.4352 -10.3375 -10.3246 -10.2889 -10.2693
    -8.1039  -7.9235  -7.6312  -7.4990  -7.4151  -7.4022  -7.3701  -7.3146
     3.0024   3.0675   3.5858   3.6980   3.9019   4.1947   4.4055   4.4278
     4.6998   4.8426   4.9359   4.9412   5.0414   5.0455   5.2194   5.2485
     5.3279   5.3512   5.5332   5.5467   5.6067   5.6097   5.7769   5.7872
     6.9025   6.9698   7.1829   7.3164   7.3844   7.4205   7.6660   7.8334
     7.9093   7.9790   8.0303   8.0449   8.1369   8.2277   8.4444   8.4942
     8.7697   8.7984  10.3100  10.9940  12.8247  13.4867  14.2020  14.2447
    15.0910  15.1122  15.2754  15.3077  15.6515  15.6909  16.0005

     occupation numbers 
     1.0000   1.0000   1.0000   1.0000   1.0000   1.0000   1.0000   1.0000
     1.0000   1.0000   1.0000   1.0000   1.0000   1.0000   1.0000   1.0000
     1.0000   1.0000   1.0000   1.0000   1.0000   1.0000   1.0000   1.0000
     1.0000   1.0000   1.0000   1.0000   1.0000   1.0000   1.0000   1.0000
     1.0000   1.0000   1.0000   1.0000   1.0000   1.0000   1.0000   1.0000
     1.0000   1.0000   1.0000   1.0000   1.0000   1.0000   1.0000   1.0000
     1.0000   1.0000   1.0000   1.0000   1.0000   1.0000   1.0000   1.0000
     1.0000   1.0000   1.0000   1.0000   1.0000   1.0000   1.0000   1.0000
     1.0000   1.0001  -0.0007   0.0000   0.0000   0.0000   0.0000   0.0000
     0.0000   0.0000   0.0000   0.0000   0.0000   0.0000   0.0000

          k = 0.2000 0.4000 0.6063 ( 18152 PWs)   bands (ev):

   -29.3064 -29.3037 -29.2995 -29.2970 -10.7433 -10.7153 -10.6887 -10.6720
   -10.5917 -10.5573 -10.5062 -10.4347 -10.4144 -10.3937 -10.3599 -10.3556
    -7.9278  -7.8172  -7.6362  -7.5439  -7.4293  -7.4080  -7.3917  -7.3706
     3.0919   3.1082   3.6113   3.7422   3.9881   4.2159   4.3980   4.4388
     4.6935   4.7522   4.7635   4.8248   4.8323   4.9015   5.0715   5.1837
     5.2993   5.3040   5.4780   5.5143   5.7450   5.7861   6.0106   6.0180
     6.7309   6.8090   7.1993   7.2554   7.2929   7.5207   7.5643   7.6350
     7.7561   7.8654   7.8729   7.8958   8.0184   8.0207   8.2931   8.4489
     8.7833   8.8491  10.3666  11.0227  13.3222  13.4636  13.7916  13.8477
    15.4691  15.5219  15.6255  15.7692  15.7763  15.9303  16.2066

     occupation numbers 
     1.0000   1.0000   1.0000   1.0000   1.0000   1.0000   1.0000   1.0000
     1.0000   1.0000   1.0000   1.0000   1.0000   1.0000   1.0000   1.0000
     1.0000   1.0000   1.0000   1.0000   1.0000   1.0000   1.0000   1.0000
     1.0000   1.0000   1.0000   1.0000   1.0000   1.0000   1.0000   1.0000
     1.0000   1.0000   1.0000   1.0000   1.0000   1.0000   1.0000   1.0000
     1.0000   1.0000   1.0000   1.0000   1.0000   1.0000   1.0000   1.0000
     1.0000   1.0000   1.0000   1.0000   1.0000   1.0000   1.0000   1.0000
     1.0000   1.0000   1.0000   1.0000   1.0000   1.0000   1.0000   1.0000
     1.0000   1.0021  -0.0001   0.0000   0.0000   0.0000   0.0000   0.0000
     0.0000   0.0000   0.0000   0.0000   0.0000   0.0000   0.0000

          k = 0.2000 0.4000 0.8084 ( 18162 PWs)   bands (ev):

   -29.2889 -29.2866 -29.2826 -29.2800 -10.9395 -10.8627 -10.7450 -10.6892
   -10.5297 -10.5217 -10.4659 -10.4403 -10.3923 -10.3760 -10.3323 -10.3282
    -7.7844  -7.7705  -7.7063  -7.6190  -7.4585  -7.4071  -7.3696  -7.3647
     3.1453   3.1736   3.6413   3.7865   4.0725   4.2322   4.3884   4.4253
     4.5443   4.5934   4.6103   4.7174   4.7370   4.8011   4.8651   5.0609
     5.2802   5.2833   5.4072   5.4707   5.8879   6.0083   6.2803   6.3179
     6.6269   6.7232   7.1019   7.2136   7.2486   7.3696   7.5517   7.5641
     7.5950   7.7835   7.7885   7.8265   7.8879   7.9344   8.1381   8.3864
     8.8043   8.9168  10.4296  11.0514  12.6575  13.2409  13.7593  13.8688
    15.6291  15.7197  16.0165  16.1007  16.3382  16.3944  16.4106

     occupation numbers 
     1.0000   1.0000   1.0000   1.0000   1.0000   1.0000   1.0000   1.0000
     1.0000   1.0000   1.0000   1.0000   1.0000   1.0000   1.0000   1.0000
     1.0000   1.0000   1.0000   1.0000   1.0000   1.0000   1.0000   1.0000
     1.0000   1.0000   1.0000   1.0000   1.0000   1.0000   1.0000   1.0000
     1.0000   1.0000   1.0000   1.0000   1.0000   1.0000   1.0000   1.0000
     1.0000   1.0000   1.0000   1.0000   1.0000   1.0000   1.0000   1.0000
     1.0000   1.0000   1.0000   1.0000   1.0000   1.0000   1.0000   1.0000
     1.0000   1.0000   1.0000   1.0000   1.0000   1.0000   1.0000   1.0000
     1.0000   1.0054   0.0000   0.0000   0.0000   0.0000   0.0000   0.0000
     0.0000   0.0000   0.0000   0.0000   0.0000   0.0000   0.0000

          k = 0.2000 0.4000 1.0105 ( 18181 PWs)   bands (ev):

   -29.2761 -29.2740 -29.2702 -29.2676 -11.0814 -10.9920 -10.8575 -10.7845
   -10.4453 -10.4408 -10.4044 -10.3929 -10.3526 -10.3420 -10.3086 -10.3048
    -7.7907  -7.7638  -7.7001  -7.6902  -7.4976  -7.3820  -7.3461  -7.3271
     3.1708   3.2280   3.6674   3.8214   4.1416   4.2501   4.3646   4.3899
     4.3909   4.4586   4.4764   4.5698   4.7289   4.7375   4.7885   4.9650
     5.2267   5.2354   5.3981   5.4677   5.9431   6.1459   6.4635   6.5160
     6.7395   6.8227   7.0399   7.0869   7.1810   7.2409   7.4199   7.4720
     7.6380   7.7305   7.7692   7.8250   7.8318   7.8878   8.0189   8.3332
     8.8251   8.9795  10.4852  11.0747  12.0230  12.7379  13.7704  14.0327
    15.8451  15.8695  16.1026  16.2143  16.4526  16.6050  16.6255

     occupation numbers 
     1.0000   1.0000   1.0000   1.0000   1.0000   1.0000   1.0000   1.0000
     1.0000   1.0000   1.0000   1.0000   1.0000   1.0000   1.0000   1.0000
     1.0000   1.0000   1.0000   1.0000   1.0000   1.0000   1.0000   1.0000
     1.0000   1.0000   1.0000   1.0000   1.0000   1.0000   1.0000   1.0000
     1.0000   1.0000   1.0000   1.0000   1.0000   1.0000   1.0000   1.0000
     1.0000   1.0000   1.0000   1.0000   1.0000   1.0000   1.0000   1.0000
     1.0000   1.0000   1.0000   1.0000   1.0000   1.0000   1.0000   1.0000
     1.0000   1.0000   1.0000   1.0000   1.0000   1.0000   1.0000   1.0000
     1.0000   1.0087   0.0000   0.0000   0.0000   0.0000   0.0000   0.0000
     0.0000   0.0000   0.0000   0.0000   0.0000   0.0000   0.0000

          k = 0.2000 0.4000-1.2126 ( 18166 PWs)   bands (ev):

   -29.2713 -29.2693 -29.2656 -29.2630 -11.1321 -11.0394 -10.9002 -10.8233
   -10.4111 -10.4083 -10.3795 -10.3714 -10.3372 -10.3282 -10.2996 -10.2959
    -7.8193  -7.7733  -7.7222  -7.6709  -7.5118  -7.3727  -7.3367  -7.3073
     3.1799   3.2467   3.6780   3.8357   4.1743   4.2849   4.2948   4.3247
     4.3902   4.4228   4.4509   4.4781   4.6870   4.7488   4.7824   4.9278
     5.1985   5.2138   5.4019   5.4718   5.9496   6.1833   6.4891   6.5836
     6.8673   6.9588   7.0191   7.0219   7.1105   7.2505   7.3555   7.3654
     7.6619   7.7148   7.7676   7.8082   7.8546   7.8633   7.9730   8.3130
     8.8341   9.0061  10.5093  11.0855  11.7749  12.5393  13.7074  14.1189
    15.9555  15.9872  16.0878  16.2462  16.5510  16.6416  16.7071

     occupation numbers 
     1.0000   1.0000   1.0000   1.0000   1.0000   1.0000   1.0000   1.0000
     1.0000   1.0000   1.0000   1.0000   1.0000   1.0000   1.0000   1.0000
     1.0000   1.0000   1.0000   1.0000   1.0000   1.0000   1.0000   1.0000
     1.0000   1.0000   1.0000   1.0000   1.0000   1.0000   1.0000   1.0000
     1.0000   1.0000   1.0000   1.0000   1.0000   1.0000   1.0000   1.0000
     1.0000   1.0000   1.0000   1.0000   1.0000   1.0000   1.0000   1.0000
     1.0000   1.0000   1.0000   1.0000   1.0000   1.0000   1.0000   1.0000
     1.0000   1.0000   1.0000   1.0000   1.0000   1.0000   1.0000   1.0000
     1.0000   1.0100   0.0000   0.0000   0.0000   0.0000   0.0000   0.0000
     0.0000   0.0000   0.0000   0.0000   0.0000   0.0000   0.0000

          k = 0.4000 0.4000 0.0000 ( 18093 PWs)   bands (ev):

   -29.3386 -29.3356 -29.3356 -29.3328 -10.7640 -10.7633 -10.7615 -10.7189
   -10.6279 -10.5843 -10.5827 -10.5726 -10.1080 -10.1024 -10.1024 -10.0967
    -8.1352  -7.8994  -7.8981  -7.6765  -7.3647  -7.3432  -7.2936  -7.2541
     3.2794   3.3229   3.5696   3.6606   3.9998   4.0562   4.0930   4.3801
     4.5272   4.8050   4.8117   4.8640   5.2061   5.2066   5.2234   5.2242
     5.2948   5.2992   5.5165   5.5208   5.5246   5.5290   5.5667   5.5724
     7.2205   7.2548   7.3396   7.4735   7.6165   7.7657   7.8221   7.8669
     7.8775   8.0474   8.0898   8.1020   8.3487   8.4234   8.4371   8.4755
     9.2019   9.2398  10.3954  10.7164  12.6571  13.3005  13.3222  13.8433
    14.9092  15.1755  15.1897  15.2643  15.6672  15.6844  15.6876

     occupation numbers 
     1.0000   1.0000   1.0000   1.0000   1.0000   1.0000   1.0000   1.0000
     1.0000   1.0000   1.0000   1.0000   1.0000   1.0000   1.0000   1.0000
     1.0000   1.0000   1.0000   1.0000   1.0000   1.0000   1.0000   1.0000
     1.0000   1.0000   1.0000   1.0000   1.0000   1.0000   1.0000   1.0000
     1.0000   1.0000   1.0000   1.0000   1.0000   1.0000   1.0000   1.0000
     1.0000   1.0000   1.0000   1.0000   1.0000   1.0000   1.0000   1.0000
     1.0000   1.0000   1.0000   1.0000   1.0000   1.0000   1.0000   1.0000
     1.0000   1.0000   1.0000   1.0000   1.0000   1.0000   1.0000   1.0000
     1.0000   1.0000  -0.0027   0.0000   0.0000   0.0000   0.0000   0.0000
     0.0000   0.0000   0.0000   0.0000   0.0000   0.0000   0.0000

          k = 0.4000 0.4000 0.2021 ( 18098 PWs)   bands (ev):

   -29.3340 -29.3311 -29.3311 -29.3283 -10.7460 -10.7456 -10.7433 -10.6980
   -10.6217 -10.5722 -10.5706 -10.5575 -10.1737 -10.1613 -10.1613 -10.1494
    -8.0887  -7.8715  -7.8702  -7.6682  -7.3679  -7.3533  -7.3038  -7.2687
     3.3050   3.3320   3.5718   3.6765   4.0100   4.0674   4.1055   4.3852
     4.5366   4.8114   4.8132   4.8695   5.1542   5.1692   5.1708   5.1812
     5.3212   5.3315   5.4824   5.4937   5.4979   5.4989   5.6305   5.6344
     7.2218   7.2507   7.3440   7.4078   7.5759   7.7574   7.7607   7.8203
     7.8546   7.9848   8.0397   8.0405   8.2884   8.3966   8.4067   8.4179
     9.2103   9.2515  10.4057  10.7237  12.8059  13.4293  13.4487  13.9384
    14.9997  15.1918  15.1928  15.2033  15.6313  15.6686  15.6712

     occupation numbers 
     1.0000   1.0000   1.0000   1.0000   1.0000   1.0000   1.0000   1.0000
     1.0000   1.0000   1.0000   1.0000   1.0000   1.0000   1.0000   1.0000
     1.0000   1.0000   1.0000   1.0000   1.0000   1.0000   1.0000   1.0000
     1.0000   1.0000   1.0000   1.0000   1.0000   1.0000   1.0000   1.0000
     1.0000   1.0000   1.0000   1.0000   1.0000   1.0000   1.0000   1.0000
     1.0000   1.0000   1.0000   1.0000   1.0000   1.0000   1.0000   1.0000
     1.0000   1.0000   1.0000   1.0000   1.0000   1.0000   1.0000   1.0000
     1.0000   1.0000   1.0000   1.0000   1.0000   1.0000   1.0000   1.0000
     1.0000   1.0000  -0.0023   0.0000   0.0000   0.0000   0.0000   0.0000
     0.0000   0.0000   0.0000   0.0000   0.0000   0.0000   0.0000

          k = 0.4000 0.4000 0.4042 ( 18136 PWs)   bands (ev):

   -29.3215 -29.3187 -29.3187 -29.3160 -10.7025 -10.7008 -10.6992 -10.6396
   -10.6244 -10.5430 -10.5413 -10.5158 -10.3178 -10.3013 -10.3012 -10.2826
    -7.9769  -7.8068  -7.8056  -7.6517  -7.3802  -7.3788  -7.3312  -7.3087
     3.3554   3.3734   3.5776   3.7180   4.0362   4.0909   4.1425   4.3977
     4.5619   4.8171   4.8295   4.8844   5.0209   5.0259   5.0639   5.0735
     5.2512   5.2900   5.3820   5.3961   5.5826   5.5844   5.7914   5.7957
     7.1904   7.2060   7.2196   7.3988   7.4702   7.6327   7.7236   7.7493
     7.7953   7.8343   7.9039   7.9274   8.1116   8.2726   8.2837   8.3611
     9.2274   9.2794  10.4329  10.7429  13.1678  13.6995  13.7090  14.0095
    15.1278  15.1966  15.1999  15.2552  15.5776  15.7487  15.7515

     occupation numbers 
     1.0000   1.0000   1.0000   1.0000   1.0000   1.0000   1.0000   1.0000
     1.0000   1.0000   1.0000   1.0000   1.0000   1.0000   1.0000   1.0000
     1.0000   1.0000   1.0000   1.0000   1.0000   1.0000   1.0000   1.0000
     1.0000   1.0000   1.0000   1.0000   1.0000   1.0000   1.0000   1.0000
     1.0000   1.0000   1.0000   1.0000   1.0000   1.0000   1.0000   1.0000
     1.0000   1.0000   1.0000   1.0000   1.0000   1.0000   1.0000   1.0000
     1.0000   1.0000   1.0000   1.0000   1.0000   1.0000   1.0000   1.0000
     1.0000   1.0000   1.0000   1.0000   1.0000   1.0000   1.0000   1.0000
     1.0000   1.0000  -0.0012   0.0000   0.0000   0.0000   0.0000   0.0000
     0.0000   0.0000   0.0000   0.0000   0.0000   0.0000   0.0000

          k = 0.4000 0.4000 0.6063 ( 18168 PWs)   bands (ev):

   -29.3043 -29.3017 -29.3017 -29.2991 -10.7197 -10.6960 -10.6956 -10.6759
   -10.5562 -10.5177 -10.5158 -10.4573 -10.4176 -10.3989 -10.3985 -10.3955
    -7.8498  -7.7429  -7.7426  -7.6420  -7.4127  -7.4053  -7.3654  -7.3574
     3.3842   3.4634   3.5857   3.7710   4.0688   4.1132   4.1960   4.4122
     4.5939   4.8212   4.8310   4.8333   4.8664   4.8764   4.9155   4.9407
     5.0483   5.1476   5.2440   5.2595   5.8109   5.8259   6.0283   6.0305
     6.9797   7.1371   7.1396   7.3428   7.4025   7.5149   7.6386   7.6847
     7.7377   7.7447   7.7557   7.8278   7.8930   8.0863   8.1230   8.2703
     9.2463   9.3146  10.4694  10.7681  13.5297  13.6216  13.7480  13.7642
    15.3258  15.3293  15.4114  15.4487  15.8762  16.0477  16.0523

     occupation numbers 
     1.0000   1.0000   1.0000   1.0000   1.0000   1.0000   1.0000   1.0000
     1.0000   1.0000   1.0000   1.0000   1.0000   1.0000   1.0000   1.0000
     1.0000   1.0000   1.0000   1.0000   1.0000   1.0000   1.0000   1.0000
     1.0000   1.0000   1.0000   1.0000   1.0000   1.0000   1.0000   1.0000
     1.0000   1.0000   1.0000   1.0000   1.0000   1.0000   1.0000   1.0000
     1.0000   1.0000   1.0000   1.0000   1.0000   1.0000   1.0000   1.0000
     1.0000   1.0000   1.0000   1.0000   1.0000   1.0000   1.0000   1.0000
     1.0000   1.0000   1.0000   1.0000   1.0000   1.0000   1.0000   1.0000
     1.0000   0.9988  -0.0004   0.0000   0.0000   0.0000   0.0000   0.0000
     0.0000   0.0000   0.0000   0.0000   0.0000   0.0000   0.0000

          k = 0.4000 0.4000 0.8084 ( 18171 PWs)   bands (ev):

   -29.2870 -29.2846 -29.2846 -29.2821 -10.8877 -10.8163 -10.8163 -10.7528
   -10.4680 -10.4621 -10.4607 -10.4347 -10.3970 -10.3802 -10.3796 -10.3779
    -7.7432  -7.7127  -7.7078  -7.6452  -7.4592  -7.4329  -7.3904  -7.3861
     3.4107   3.5512   3.5939   3.8240   4.1017   4.1353   4.2522   4.4244
     4.5753   4.6489   4.6844   4.6853   4.7909   4.8161   4.8425   4.8902
     4.9216   5.0135   5.1047   5.1201   6.0664   6.1312   6.2851   6.3211
     6.8329   7.0197   7.0454   7.2434   7.3395   7.4462   7.5294   7.5808
     7.6401   7.7065   7.7140   7.7429   7.7975   7.9078   7.9550   8.1515
     9.2651   9.3516  10.5073  10.7926  13.0014  13.4358  13.4819  13.6672
    15.6027  15.7142  15.7190  15.9035  16.4030  16.4090  16.4215

     occupation numbers 
     1.0000   1.0000   1.0000   1.0000   1.0000   1.0000   1.0000   1.0000
     1.0000   1.0000   1.0000   1.0000   1.0000   1.0000   1.0000   1.0000
     1.0000   1.0000   1.0000   1.0000   1.0000   1.0000   1.0000   1.0000
     1.0000   1.0000   1.0000   1.0000   1.0000   1.0000   1.0000   1.0000
     1.0000   1.0000   1.0000   1.0000   1.0000   1.0000   1.0000   1.0000
     1.0000   1.0000   1.0000   1.0000   1.0000   1.0000   1.0000   1.0000
     1.0000   1.0000   1.0000   1.0000   1.0000   1.0000   1.0000   1.0000
     1.0000   1.0000   1.0000   1.0000   1.0000   1.0000   1.0000   1.0000
     1.0000   0.8905  -0.0001   0.0000   0.0000   0.0000   0.0000   0.0000
     0.0000   0.0000   0.0000   0.0000   0.0000   0.0000   0.0000

          k = 0.4000 0.4000 1.0105 ( 18163 PWs)   bands (ev):

   -29.2743 -29.2720 -29.2720 -29.2696 -11.0179 -10.9332 -10.9331 -10.8546
   -10.4015 -10.4007 -10.3999 -10.3933 -10.3516 -10.3470 -10.3454 -10.3449
    -7.7144  -7.7036  -7.6748  -7.6550  -7.5102  -7.4354  -7.4009  -7.3988
     3.4291   3.6000   3.6166   3.8683   4.1368   4.1652   4.3026   4.4329
     4.4332   4.4913   4.5251   4.6269   4.6891   4.7004   4.8399   4.8734
     4.9140   4.9766   5.0019   5.0168   6.2466   6.4359   6.4853   6.5677
     6.8328   6.8738   6.9879   7.2045   7.2135   7.4011   7.4420   7.4625
     7.6217   7.6243   7.6926   7.7007   7.8007   7.8139   7.8288   8.0435
     9.2796   9.3816  10.5375  10.8102  12.4825  13.0817  13.1504  13.6059
    15.9683  16.1483  16.1494  16.2124  16.5835  16.5871  16.6156

     occupation numbers 
     1.0000   1.0000   1.0000   1.0000   1.0000   1.0000   1.0000   1.0000
     1.0000   1.0000   1.0000   1.0000   1.0000   1.0000   1.0000   1.0000
     1.0000   1.0000   1.0000   1.0000   1.0000   1.0000   1.0000   1.0000
     1.0000   1.0000   1.0000   1.0000   1.0000   1.0000   1.0000   1.0000
     1.0000   1.0000   1.0000   1.0000   1.0000   1.0000   1.0000   1.0000
     1.0000   1.0000   1.0000   1.0000   1.0000   1.0000   1.0000   1.0000
     1.0000   1.0000   1.0000   1.0000   1.0000   1.0000   1.0000   1.0000
     1.0000   1.0000   1.0000   1.0000   1.0000   1.0000   1.0000   1.0000
     1.0000   0.7207   0.0000   0.0000   0.0000   0.0000   0.0000   0.0000
     0.0000   0.0000   0.0000   0.0000   0.0000   0.0000   0.0000

          k = 0.4000 0.4000-1.2126 ( 18148 PWs)   bands (ev):

   -29.2696 -29.2674 -29.2674 -29.2650 -11.0652 -10.9770 -10.9769 -10.8947
   -10.3773 -10.3767 -10.3742 -10.3735 -10.3347 -10.3341 -10.3312 -10.3307
    -7.7201  -7.7068  -7.6604  -7.6512  -7.5303  -7.4335  -7.4061  -7.3994
     3.4358   3.6022   3.6414   3.8878   4.1604   4.1870   4.3352   4.3622
     4.4137   4.4403   4.4573   4.5492   4.6653   4.6986   4.8403   4.8412
     4.9231   4.9639   4.9787   4.9794   6.3029   6.5566   6.6272   6.6768
     6.6973   6.9751   7.0016   7.0540   7.2158   7.3095   7.4440   7.4863
     7.5314   7.6153   7.6847   7.6983   7.7837   7.7977   7.8043   7.9973
     9.2852   9.3936  10.5496  10.8165  12.2798  12.9339  13.0115  13.5544
    16.2049  16.3231  16.4385  16.4464  16.5147  16.5238  16.7904

     occupation numbers 
     1.0000   1.0000   1.0000   1.0000   1.0000   1.0000   1.0000   1.0000
     1.0000   1.0000   1.0000   1.0000   1.0000   1.0000   1.0000   1.0000
     1.0000   1.0000   1.0000   1.0000   1.0000   1.0000   1.0000   1.0000
     1.0000   1.0000   1.0000   1.0000   1.0000   1.0000   1.0000   1.0000
     1.0000   1.0000   1.0000   1.0000   1.0000   1.0000   1.0000   1.0000
     1.0000   1.0000   1.0000   1.0000   1.0000   1.0000   1.0000   1.0000
     1.0000   1.0000   1.0000   1.0000   1.0000   1.0000   1.0000   1.0000
     1.0000   1.0000   1.0000   1.0000   1.0000   1.0000   1.0000   1.0000
     1.0000   0.6776   0.0000   0.0000   0.0000   0.0000   0.0000   0.0000
     0.0000   0.0000   0.0000   0.0000   0.0000   0.0000   0.0000

 ------ SPIN DOWN ----------


          k = 0.0000 0.0000 0.0000 ( 18051 PWs)   bands (ev):

   -29.3456 -29.3352 -29.3352 -29.3272 -10.9436 -10.9368 -10.8693 -10.8693
   -10.3922 -10.3922 -10.3816 -10.3812 -10.1202 -10.1029 -10.1029 -10.0835
    -8.6969  -7.8341  -7.8341  -7.4870  -7.4521  -7.4112  -7.1612  -7.1612
     2.3487   2.7625   3.3581   3.4164   3.5400   4.6126   4.7404   5.0247
     5.0247   5.1258   5.1258   5.2079   5.2079   5.2172   5.3106   5.3176
     5.5295   5.5714   5.6135   5.6135   5.7502   5.7502   5.7666   5.7666
     6.4609   6.4609   7.1783   7.3660   7.3686   7.3926   7.4168   7.6470
     8.2350   8.2350   8.2925   8.3685   8.4276   8.4627   8.4627   8.5794
     8.7936   8.7936   9.3046  11.2790  11.8229  13.9464  14.0102  14.0102
    15.0207  15.0824  15.1146  15.3961  15.4815  15.6070  15.6070

     occupation numbers 
     1.0000   1.0000   1.0000   1.0000   1.0000   1.0000   1.0000   1.0000
     1.0000   1.0000   1.0000   1.0000   1.0000   1.0000   1.0000   1.0000
     1.0000   1.0000   1.0000   1.0000   1.0000   1.0000   1.0000   1.0000
     1.0000   1.0000   1.0000   1.0000   1.0000   1.0000   1.0000   1.0000
     1.0000   1.0000   1.0000   1.0000   1.0000   1.0000   1.0000   1.0000
     1.0000   1.0000   1.0000   1.0000   1.0000   1.0000   1.0000   1.0000
     1.0000   1.0000   1.0000   1.0000   1.0000   1.0000   1.0000   1.0000
     1.0000   1.0000   1.0000   1.0000   1.0000   1.0000   1.0000   1.0000
     1.0000   1.0000   0.7897   0.0000   0.0000   0.0000   0.0000   0.0000
     0.0000   0.0000   0.0000   0.0000   0.0000   0.0000   0.0000

          k = 0.0000 0.0000 0.2021 ( 18082 PWs)   bands (ev):

   -29.3409 -29.3307 -29.3307 -29.3227 -10.9144 -10.9080 -10.8432 -10.8432
   -10.3855 -10.3855 -10.3748 -10.3744 -10.2378 -10.1717 -10.1717 -10.1273
    -8.5856  -7.7815  -7.7815  -7.4820  -7.4734  -7.4415  -7.1894  -7.1894
     2.3829   2.7699   3.4056   3.4199   3.5488   4.5996   4.7261   4.9859
     4.9859   5.0644   5.0644   5.1943   5.1943   5.2446   5.3214   5.3615
     5.5759   5.5973   5.5973   5.6136   5.7343   5.7343   5.7892   5.7892
     6.5221   6.5221   7.1788   7.2363   7.2733   7.3038   7.4296   7.7106
     8.1417   8.2044   8.2044   8.3218   8.3822   8.4327   8.4327   8.6029
     8.6720   8.6720   9.3300  11.4842  11.8256  14.1244  14.2094  14.2094
    14.8055  14.9852  15.0497  15.5746  15.5933  15.5933  15.5967

     occupation numbers 
     1.0000   1.0000   1.0000   1.0000   1.0000   1.0000   1.0000   1.0000
     1.0000   1.0000   1.0000   1.0000   1.0000   1.0000   1.0000   1.0000
     1.0000   1.0000   1.0000   1.0000   1.0000   1.0000   1.0000   1.0000
     1.0000   1.0000   1.0000   1.0000   1.0000   1.0000   1.0000   1.0000
     1.0000   1.0000   1.0000   1.0000   1.0000   1.0000   1.0000   1.0000
     1.0000   1.0000   1.0000   1.0000   1.0000   1.0000   1.0000   1.0000
     1.0000   1.0000   1.0000   1.0000   1.0000   1.0000   1.0000   1.0000
     1.0000   1.0000   1.0000   1.0000   1.0000   1.0000   1.0000   1.0000
     1.0000   1.0000   0.6577   0.0000   0.0000   0.0000   0.0000   0.0000
     0.0000   0.0000   0.0000   0.0000   0.0000   0.0000   0.0000

          k = 0.0000 0.0000 0.4042 ( 18094 PWs)   bands (ev):

   -29.3280 -29.3184 -29.3184 -29.3104 -10.8316 -10.8263 -10.7694 -10.7694
   -10.5017 -10.3670 -10.3670 -10.3561 -10.3557 -10.3469 -10.3469 -10.2454
    -8.3378  -7.6488  -7.6488  -7.5670  -7.5272  -7.4361  -7.2691  -7.2691
     2.4754   2.7902   3.4293   3.5312   3.5719   4.5622   4.6854   4.8816
     4.8816   4.8915   4.8915   5.1562   5.1562   5.2836   5.3320   5.5030
     5.5580   5.5580   5.6886   5.6886   5.7252   5.7267   5.8466   5.8466
     6.6874   6.6874   6.8425   7.0792   7.1346   7.1785   7.5333   7.7627
     7.8396   8.1280   8.1280   8.2000   8.2641   8.3570   8.3570   8.3893
     8.3893   8.6683   9.4025  11.8327  11.9998  14.0045  14.6397  14.7375
    14.7375  14.8566  14.9288  15.5550  15.5550  15.9268  16.0284

     occupation numbers 
     1.0000   1.0000   1.0000   1.0000   1.0000   1.0000   1.0000   1.0000
     1.0000   1.0000   1.0000   1.0000   1.0000   1.0000   1.0000   1.0000
     1.0000   1.0000   1.0000   1.0000   1.0000   1.0000   1.0000   1.0000
     1.0000   1.0000   1.0000   1.0000   1.0000   1.0000   1.0000   1.0000
     1.0000   1.0000   1.0000   1.0000   1.0000   1.0000   1.0000   1.0000
     1.0000   1.0000   1.0000   1.0000   1.0000   1.0000   1.0000   1.0000
     1.0000   1.0000   1.0000   1.0000   1.0000   1.0000   1.0000   1.0000
     1.0000   1.0000   1.0000   1.0000   1.0000   1.0000   1.0000   1.0000
     1.0000   1.0000   0.2408   0.0000   0.0000   0.0000   0.0000   0.0000
     0.0000   0.0000   0.0000   0.0000   0.0000   0.0000   0.0000

          k = 0.0000 0.0000 0.6063 ( 18118 PWs)   bands (ev):

   -29.3102 -29.3016 -29.3016 -29.2935 -10.7908 -10.7102 -10.7062 -10.6622
   -10.6622 -10.5639 -10.5639 -10.4026 -10.3417 -10.3417 -10.3305 -10.3300
    -8.0669  -7.6920  -7.6528  -7.4863  -7.4863  -7.3850  -7.3850  -7.3842
     2.5997   2.8178   3.4422   3.6018   3.6937   4.5075   4.6259   4.6437
     4.6437   4.7431   4.7431   5.1019   5.1019   5.2149   5.3465   5.5120
     5.5120   5.6210   5.6210   5.7077   5.8801   5.9198   5.9198   5.9857
     6.5254   6.8575   6.9099   6.9099   6.9174   7.1533   7.3263   7.6811
     8.0115   8.0394   8.0394   8.0467   8.0873   8.0873   8.1160   8.2660
     8.2660   8.7609   9.5159  11.8424  12.6773  12.9634  14.5925  14.6748
    15.4329  15.4626  15.4626  15.5005  15.5005  16.0082  16.4148

     occupation numbers 
     1.0000   1.0000   1.0000   1.0000   1.0000   1.0000   1.0000   1.0000
     1.0000   1.0000   1.0000   1.0000   1.0000   1.0000   1.0000   1.0000
     1.0000   1.0000   1.0000   1.0000   1.0000   1.0000   1.0000   1.0000
     1.0000   1.0000   1.0000   1.0000   1.0000   1.0000   1.0000   1.0000
     1.0000   1.0000   1.0000   1.0000   1.0000   1.0000   1.0000   1.0000
     1.0000   1.0000   1.0000   1.0000   1.0000   1.0000   1.0000   1.0000
     1.0000   1.0000   1.0000   1.0000   1.0000   1.0000   1.0000   1.0000
     1.0000   1.0000   1.0000   1.0000   1.0000   1.0000   1.0000   1.0000
     1.0000   1.0000  -0.0021   0.0000   0.0000   0.0000   0.0000   0.0000
     0.0000   0.0000   0.0000   0.0000   0.0000   0.0000   0.0000

          k = 0.0000 0.0000 0.8084 ( 18110 PWs)   bands (ev):

   -29.2923 -29.2848 -29.2848 -29.2764 -11.0361 -10.7625 -10.7625 -10.5768
   -10.5743 -10.5555 -10.5460 -10.5460 -10.3162 -10.3162 -10.3046 -10.3042
    -7.8358  -7.8296  -7.7905  -7.5107  -7.5107  -7.3381  -7.3381  -7.3312
     2.7209   2.8447   3.4553   3.6301   3.8463   4.3853   4.3853   4.4485
     4.5620   4.6090   4.6090   4.9883   5.0440   5.0440   5.3612   5.4711
     5.4711   5.5492   5.5492   5.9346   5.9904   5.9904   6.0363   6.2319
     6.5501   6.6533   6.7064   6.8530   7.1296   7.1296   7.2119   7.8362
     7.8519   7.8519   7.9069   7.9672   7.9672   7.9817   8.1868   8.1868
     8.2180   8.8575   9.6582  11.8523  11.9123  13.4342  14.2121  14.3022
    15.4427  15.4427  16.1033  16.1133  16.1133  16.2371  16.2371

     occupation numbers 
     1.0000   1.0000   1.0000   1.0000   1.0000   1.0000   1.0000   1.0000
     1.0000   1.0000   1.0000   1.0000   1.0000   1.0000   1.0000   1.0000
     1.0000   1.0000   1.0000   1.0000   1.0000   1.0000   1.0000   1.0000
     1.0000   1.0000   1.0000   1.0000   1.0000   1.0000   1.0000   1.0000
     1.0000   1.0000   1.0000   1.0000   1.0000   1.0000   1.0000   1.0000
     1.0000   1.0000   1.0000   1.0000   1.0000   1.0000   1.0000   1.0000
     1.0000   1.0000   1.0000   1.0000   1.0000   1.0000   1.0000   1.0000
     1.0000   1.0000   1.0000   1.0000   1.0000   1.0000   1.0000   1.0000
     1.0000   1.0000  -0.0005   0.0000   0.0000   0.0000   0.0000   0.0000
     0.0000   0.0000   0.0000   0.0000   0.0000   0.0000   0.0000

          k = 0.0000 0.0000 1.0105 ( 18146 PWs)   bands (ev):

   -29.2791 -29.2725 -29.2725 -29.2637 -11.1982 -10.8989 -10.8989 -10.6650
   -10.4693 -10.4681 -10.4538 -10.4538 -10.2973 -10.2973 -10.2855 -10.2851
    -7.9406  -7.9011  -7.6817  -7.6103  -7.6103  -7.2917  -7.2358  -7.2358
     2.8071   2.8640   3.4648   3.6501   3.9521   4.1913   4.1913   4.4027
     4.5124   4.5136   4.5136   4.7574   4.9988   4.9988   5.3720   5.4432
     5.4432   5.4954   5.4954   6.0413   6.0413   6.1343   6.1629   6.3031
     6.4979   6.5351   6.5753   6.8869   7.2084   7.2893   7.2893   7.7103
     7.7103   7.8125   7.8912   7.9234   7.9234   7.9546   8.1352   8.1352
     8.4078   8.9310   9.7935  11.0720  11.8595  13.8528  13.9450  14.1895
    15.3987  15.3987  15.8765  15.8765  16.1761  16.3829  16.3908

     occupation numbers 
     1.0000   1.0000   1.0000   1.0000   1.0000   1.0000   1.0000   1.0000
     1.0000   1.0000   1.0000   1.0000   1.0000   1.0000   1.0000   1.0000
     1.0000   1.0000   1.0000   1.0000   1.0000   1.0000   1.0000   1.0000
     1.0000   1.0000   1.0000   1.0000   1.0000   1.0000   1.0000   1.0000
     1.0000   1.0000   1.0000   1.0000   1.0000   1.0000   1.0000   1.0000
     1.0000   1.0000   1.0000   1.0000   1.0000   1.0000   1.0000   1.0000
     1.0000   1.0000   1.0000   1.0000   1.0000   1.0000   1.0000   1.0000
     1.0000   1.0000   1.0000   1.0000   1.0000   1.0000   1.0000   1.0000
     1.0000   1.0000   0.0000   0.0000   0.0000   0.0000   0.0000   0.0000
     0.0000   0.0000   0.0000   0.0000   0.0000   0.0000   0.0000

          k = 0.0000 0.0000-1.2126 ( 18162 PWs)   bands (ev):

   -29.2742 -29.2680 -29.2680 -29.2591 -11.2548 -10.9472 -10.9472 -10.7045
   -10.4274 -10.4267 -10.4183 -10.4183 -10.2904 -10.2904 -10.2785 -10.2781
    -7.9839  -7.9442  -7.6486  -7.6486  -7.6277  -7.2770  -7.1993  -7.1993
     2.8381   2.8710   3.4684   3.6573   3.9896   4.1196   4.1196   4.3854
     4.4792   4.4792   4.4937   4.6662   4.9815   4.9815   5.3759   5.4333
     5.4333   5.4757   5.4757   6.0598   6.0598   6.2231   6.2377   6.3245
     6.4279   6.4454   6.4763   7.0711   7.2084   7.3476   7.3476   7.6638
     7.6638   7.7794   7.8597   7.9092   7.9092   7.9991   8.1176   8.1176
     8.4887   8.9586   9.8528  10.7280  11.8622  13.7028  13.7943  14.6085
    15.3822  15.3822  15.7934  15.7934  16.2035  16.3071  16.3156

     occupation numbers 
     1.0000   1.0000   1.0000   1.0000   1.0000   1.0000   1.0000   1.0000
     1.0000   1.0000   1.0000   1.0000   1.0000   1.0000   1.0000   1.0000
     1.0000   1.0000   1.0000   1.0000   1.0000   1.0000   1.0000   1.0000
     1.0000   1.0000   1.0000   1.0000   1.0000   1.0000   1.0000   1.0000
     1.0000   1.0000   1.0000   1.0000   1.0000   1.0000   1.0000   1.0000
     1.0000   1.0000   1.0000   1.0000   1.0000   1.0000   1.0000   1.0000
     1.0000   1.0000   1.0000   1.0000   1.0000   1.0000   1.0000   1.0000
     1.0000   1.0000   1.0000   1.0000   1.0000   1.0000   1.0000   1.0000
     1.0000   1.0000   0.0000   0.0000   0.0000   0.0000   0.0000   0.0000
     0.0000   0.0000   0.0000   0.0000   0.0000   0.0000   0.0000

          k = 0.0000 0.2000 0.0000 ( 18094 PWs)   bands (ev):

   -29.3446 -29.3362 -29.3343 -29.3278 -10.9336 -10.8979 -10.8760 -10.8300
   -10.4601 -10.4377 -10.3912 -10.3825 -10.1185 -10.1045 -10.1010 -10.0853
    -8.6128  -7.9345  -7.7610  -7.4690  -7.4298  -7.3875  -7.2191  -7.1888
     2.4782   2.8231   3.4469   3.4507   3.5693   4.4688   4.7203   4.9430
     5.0347   5.0688   5.0830   5.1166   5.1542   5.1625   5.2500   5.3101
     5.4217   5.5386   5.5868   5.6078   5.6747   5.6805   5.7517   5.7650
     6.5493   6.6500   7.2021   7.3765   7.3951   7.4577   7.5013   7.9216
     8.1853   8.2488   8.3057   8.3516   8.3763   8.4056   8.4908   8.5162
     8.7301   8.7581   9.5355  11.5065  11.6310  13.6356  14.1088  14.1205
    15.0458  15.1033  15.1373  15.2990  15.4461  15.6216  15.6250

     occupation numbers 
     1.0000   1.0000   1.0000   1.0000   1.0000   1.0000   1.0000   1.0000
     1.0000   1.0000   1.0000   1.0000   1.0000   1.0000   1.0000   1.0000
     1.0000   1.0000   1.0000   1.0000   1.0000   1.0000   1.0000   1.0000
     1.0000   1.0000   1.0000   1.0000   1.0000   1.0000   1.0000   1.0000
     1.0000   1.0000   1.0000   1.0000   1.0000   1.0000   1.0000   1.0000
     1.0000   1.0000   1.0000   1.0000   1.0000   1.0000   1.0000   1.0000
     1.0000   1.0000   1.0000   1.0000   1.0000   1.0000   1.0000   1.0000
     1.0000   1.0000   1.0000   1.0000   1.0000   1.0000   1.0000   1.0000
     1.0000   1.0000   0.1359   0.0000   0.0000   0.0000   0.0000   0.0000
     0.0000   0.0000   0.0000   0.0000   0.0000   0.0000   0.0000

          k = 0.0000 0.2000 0.2021 ( 18116 PWs)   bands (ev):

   -29.3399 -29.3316 -29.3298 -29.3233 -10.9049 -10.8715 -10.8496 -10.8058
   -10.4575 -10.4311 -10.3844 -10.3757 -10.2208 -10.1751 -10.1635 -10.1303
    -8.5132  -7.8851  -7.7176  -7.4579  -7.4547  -7.4118  -7.2405  -7.2171
     2.5112   2.8313   3.4504   3.4932   3.5792   4.4634   4.7070   4.9340
     4.9940   5.0310   5.0597   5.0723   5.0975   5.1701   5.2815   5.3622
     5.4228   5.5804   5.5939   5.6339   5.6562   5.6633   5.7378   5.7836
     6.5922   6.7035   7.1784   7.2878   7.3190   7.4126   7.4439   7.9673
     8.1560   8.2055   8.2167   8.3022   8.3425   8.3578   8.4248   8.5663
     8.6084   8.6640   9.5593  11.6179  11.7150  13.7955  14.2728  14.3110
    14.8169  14.9780  15.1631  15.4232  15.6081  15.6135  15.7014

     occupation numbers 
     1.0000   1.0000   1.0000   1.0000   1.0000   1.0000   1.0000   1.0000
     1.0000   1.0000   1.0000   1.0000   1.0000   1.0000   1.0000   1.0000
     1.0000   1.0000   1.0000   1.0000   1.0000   1.0000   1.0000   1.0000
     1.0000   1.0000   1.0000   1.0000   1.0000   1.0000   1.0000   1.0000
     1.0000   1.0000   1.0000   1.0000   1.0000   1.0000   1.0000   1.0000
     1.0000   1.0000   1.0000   1.0000   1.0000   1.0000   1.0000   1.0000
     1.0000   1.0000   1.0000   1.0000   1.0000   1.0000   1.0000   1.0000
     1.0000   1.0000   1.0000   1.0000   1.0000   1.0000   1.0000   1.0000
     1.0000   1.0000   0.0865   0.0000   0.0000   0.0000   0.0000   0.0000
     0.0000   0.0000   0.0000   0.0000   0.0000   0.0000   0.0000

          k = 0.0000 0.2000 0.4042 ( 18132 PWs)   bands (ev):

   -29.3271 -29.3193 -29.3176 -29.3111 -10.8234 -10.7980 -10.7750 -10.7381
   -10.5270 -10.4269 -10.3761 -10.3660 -10.3570 -10.3523 -10.3100 -10.2505
    -8.2871  -7.7768  -7.6082  -7.5293  -7.4638  -7.4277  -7.3017  -7.2969
     2.6006   2.8533   3.4600   3.6055   3.6057   4.4445   4.6685   4.8845
     4.9012   4.9014   4.9292   4.9355   5.0400   5.1974   5.3202   5.4271
     5.4983   5.5584   5.6033   5.6119   5.6977   5.7429   5.7671   5.8321
     6.6956   6.8504   6.8737   7.1506   7.1761   7.2991   7.5132   7.8134
     8.0703   8.1364   8.1686   8.1937   8.2337   8.2593   8.3286   8.3294
     8.4477   8.6262   9.6254  11.6362  12.1936  14.0658  14.1457  14.7447
    14.7528  14.8220  15.2838  15.5820  15.7340  15.7748  16.0202

     occupation numbers 
     1.0000   1.0000   1.0000   1.0000   1.0000   1.0000   1.0000   1.0000
     1.0000   1.0000   1.0000   1.0000   1.0000   1.0000   1.0000   1.0000
     1.0000   1.0000   1.0000   1.0000   1.0000   1.0000   1.0000   1.0000
     1.0000   1.0000   1.0000   1.0000   1.0000   1.0000   1.0000   1.0000
     1.0000   1.0000   1.0000   1.0000   1.0000   1.0000   1.0000   1.0000
     1.0000   1.0000   1.0000   1.0000   1.0000   1.0000   1.0000   1.0000
     1.0000   1.0000   1.0000   1.0000   1.0000   1.0000   1.0000   1.0000
     1.0000   1.0000   1.0000   1.0000   1.0000   1.0000   1.0000   1.0000
     1.0000   1.0000   0.0149   0.0000   0.0000   0.0000   0.0000   0.0000
     0.0000   0.0000   0.0000   0.0000   0.0000   0.0000   0.0000

          k = 0.0000 0.2000 0.6063 ( 18145 PWs)   bands (ev):

   -29.3094 -29.3024 -29.3008 -29.2942 -10.7800 -10.7093 -10.7032 -10.6665
   -10.6433 -10.5620 -10.5520 -10.4069 -10.3679 -10.3504 -10.3406 -10.3313
    -8.0373  -7.7336  -7.6460  -7.4744  -7.4524  -7.4179  -7.3926  -7.3807
     2.7200   2.8827   3.4734   3.6394   3.7512   4.4066   4.6063   4.6852
     4.6862   4.7378   4.7854   4.8725   4.9908   5.2172   5.2294   5.4358
     5.5148   5.5248   5.6007   5.6379   5.7271   5.8948   5.9563   5.9955
     6.5563   6.7430   7.0440   7.0528   7.1150   7.1231   7.4054   7.6550
     7.9925   7.9988   8.0428   8.0802   8.1546   8.1753   8.2207   8.2297
     8.2418   8.6902   9.7250  11.6505  12.8317  13.0785  14.3053  14.3652
    15.5030  15.5291  15.5390  15.6734  15.7944  15.9449  16.2518

     occupation numbers 
     1.0000   1.0000   1.0000   1.0000   1.0000   1.0000   1.0000   1.0000
     1.0000   1.0000   1.0000   1.0000   1.0000   1.0000   1.0000   1.0000
     1.0000   1.0000   1.0000   1.0000   1.0000   1.0000   1.0000   1.0000
     1.0000   1.0000   1.0000   1.0000   1.0000   1.0000   1.0000   1.0000
     1.0000   1.0000   1.0000   1.0000   1.0000   1.0000   1.0000   1.0000
     1.0000   1.0000   1.0000   1.0000   1.0000   1.0000   1.0000   1.0000
     1.0000   1.0000   1.0000   1.0000   1.0000   1.0000   1.0000   1.0000
     1.0000   1.0000   1.0000   1.0000   1.0000   1.0000   1.0000   1.0000
     1.0000   1.0000  -0.0011   0.0000   0.0000   0.0000   0.0000   0.0000
     0.0000   0.0000   0.0000   0.0000   0.0000   0.0000   0.0000

          k = 0.0000 0.2000 0.8084 ( 18139 PWs)   bands (ev):

   -29.2916 -29.2855 -29.2840 -29.2772 -11.0154 -10.8016 -10.7478 -10.6000
   -10.5727 -10.5487 -10.5395 -10.4996 -10.3372 -10.3237 -10.3150 -10.3055
    -7.8245  -7.8124  -7.7733  -7.5419  -7.4927  -7.3531  -7.3466  -7.3391
     2.8358   2.9111   3.4872   3.6715   3.8892   4.3351   4.4286   4.4648
     4.5640   4.5934   4.6525   4.8077   4.9361   5.0032   5.2495   5.4477
     5.4749   5.4763   5.5727   5.5783   5.9348   5.9549   6.1679   6.2471
     6.5471   6.6257   6.9381   6.9454   7.1389   7.1620   7.2566   7.7643
     7.8016   7.8340   7.9412   7.9662   8.0418   8.0555   8.1475   8.1605
     8.4064   8.7506   9.8465  11.6629  12.0816  13.5320  13.8297  14.2090
    15.4927  15.8602  16.0216  16.1463  16.1479  16.2863  16.3210

     occupation numbers 
     1.0000   1.0000   1.0000   1.0000   1.0000   1.0000   1.0000   1.0000
     1.0000   1.0000   1.0000   1.0000   1.0000   1.0000   1.0000   1.0000
     1.0000   1.0000   1.0000   1.0000   1.0000   1.0000   1.0000   1.0000
     1.0000   1.0000   1.0000   1.0000   1.0000   1.0000   1.0000   1.0000
     1.0000   1.0000   1.0000   1.0000   1.0000   1.0000   1.0000   1.0000
     1.0000   1.0000   1.0000   1.0000   1.0000   1.0000   1.0000   1.0000
     1.0000   1.0000   1.0000   1.0000   1.0000   1.0000   1.0000   1.0000
     1.0000   1.0000   1.0000   1.0000   1.0000   1.0000   1.0000   1.0000
     1.0000   1.0001   0.0000   0.0000   0.0000   0.0000   0.0000   0.0000
     0.0000   0.0000   0.0000   0.0000   0.0000   0.0000   0.0000

          k = 0.0000 0.2000 1.0105 ( 18137 PWs)   bands (ev):

   -29.2785 -29.2731 -29.2717 -29.2646 -11.1731 -10.9325 -10.8793 -10.6918
   -10.4673 -10.4552 -10.4504 -10.4354 -10.3128 -10.3006 -10.2962 -10.2864
    -7.9071  -7.8693  -7.6839  -7.6422  -7.5727  -7.3054  -7.2700  -7.2541
     2.9178   2.9314   3.4976   3.6946   3.9877   4.2136   4.2347   4.3804
     4.4874   4.5141   4.5539   4.6935   4.8714   4.8925   5.2490   5.4473
     5.4536   5.4610   5.5198   5.5281   5.9979   6.0837   6.3143   6.3543
     6.5158   6.7084   6.8173   6.8746   7.1068   7.2390   7.4065   7.6178
     7.7333   7.8451   7.9047   7.9300   7.9306   7.9697   8.0907   8.1567
     8.5606   8.7949   9.9603  11.2898  11.6770  13.4000  13.9735  14.2053
    15.4580  15.9193  15.9254  16.0234  16.0807  16.3623  16.4443

     occupation numbers 
     1.0000   1.0000   1.0000   1.0000   1.0000   1.0000   1.0000   1.0000
     1.0000   1.0000   1.0000   1.0000   1.0000   1.0000   1.0000   1.0000
     1.0000   1.0000   1.0000   1.0000   1.0000   1.0000   1.0000   1.0000
     1.0000   1.0000   1.0000   1.0000   1.0000   1.0000   1.0000   1.0000
     1.0000   1.0000   1.0000   1.0000   1.0000   1.0000   1.0000   1.0000
     1.0000   1.0000   1.0000   1.0000   1.0000   1.0000   1.0000   1.0000
     1.0000   1.0000   1.0000   1.0000   1.0000   1.0000   1.0000   1.0000
     1.0000   1.0000   1.0000   1.0000   1.0000   1.0000   1.0000   1.0000
     1.0000   1.0001   0.0000   0.0000   0.0000   0.0000   0.0000   0.0000
     0.0000   0.0000   0.0000   0.0000   0.0000   0.0000   0.0000

          k = 0.0000 0.2000-1.2126 ( 18192 PWs)   bands (ev):

   -29.2736 -29.2685 -29.2671 -29.2599 -11.2284 -10.9802 -10.9263 -10.7303
   -10.4262 -10.4191 -10.4142 -10.4051 -10.3037 -10.2919 -10.2892 -10.2794
    -7.9471  -7.9054  -7.6809  -7.6350  -7.6036  -7.2925  -7.2406  -7.2197
     2.9387   2.9472   3.5015   3.7031   4.0242   4.1563   4.1627   4.3603
     4.4476   4.4960   4.5159   4.6285   4.8434   4.8758   5.2443   5.4374
     5.4497   5.4717   5.4947   5.5044   6.0135   6.1341   6.3346   6.4353
     6.4822   6.6234   6.7596   7.0581   7.0954   7.2784   7.4614   7.5687
     7.6999   7.8106   7.8935   7.9003   7.9247   7.9664   8.0659   8.1570
     8.6263   8.8114  10.0102  10.9756  11.6796  13.2268  13.8624  14.5554
    15.4449  15.8462  15.9499  15.9853  16.1029  16.2638  16.4163

     occupation numbers 
     1.0000   1.0000   1.0000   1.0000   1.0000   1.0000   1.0000   1.0000
     1.0000   1.0000   1.0000   1.0000   1.0000   1.0000   1.0000   1.0000
     1.0000   1.0000   1.0000   1.0000   1.0000   1.0000   1.0000   1.0000
     1.0000   1.0000   1.0000   1.0000   1.0000   1.0000   1.0000   1.0000
     1.0000   1.0000   1.0000   1.0000   1.0000   1.0000   1.0000   1.0000
     1.0000   1.0000   1.0000   1.0000   1.0000   1.0000   1.0000   1.0000
     1.0000   1.0000   1.0000   1.0000   1.0000   1.0000   1.0000   1.0000
     1.0000   1.0000   1.0000   1.0000   1.0000   1.0000   1.0000   1.0000
     1.0000   1.0002   0.0000   0.0000   0.0000   0.0000   0.0000   0.0000
     0.0000   0.0000   0.0000   0.0000   0.0000   0.0000   0.0000

          k = 0.0000 0.4000 0.0000 ( 18106 PWs)   bands (ev):

   -29.3420 -29.3388 -29.3321 -29.3296 -10.9156 -10.8936 -10.7806 -10.7214
   -10.6163 -10.5730 -10.3885 -10.3852 -10.1142 -10.1088 -10.0962 -10.0902
    -8.4059  -8.1559  -7.5810  -7.4298  -7.4064  -7.3755  -7.3364  -7.2584
     2.7590   2.8946   3.5693   3.6593   3.7112   4.0873   4.5079   4.5132
     4.7943   4.9238   5.0607   5.0920   5.1836   5.2396   5.2700   5.2917
     5.5106   5.5249   5.5365   5.5545   5.5723   5.5836   5.7558   5.7608
     6.7926   7.0094   7.0767   7.2768   7.4585   7.4967   7.8051   8.1298
     8.1434   8.1603   8.2863   8.3230   8.3627   8.3964   8.3991   8.5676
     8.5697   8.6694  10.2287  11.0397  12.1255  12.8980  14.4318  14.5123
    14.8745  14.9513  15.0552  15.0774  15.5470  15.5978  15.6751

     occupation numbers 
     1.0000   1.0000   1.0000   1.0000   1.0000   1.0000   1.0000   1.0000
     1.0000   1.0000   1.0000   1.0000   1.0000   1.0000   1.0000   1.0000
     1.0000   1.0000   1.0000   1.0000   1.0000   1.0000   1.0000   1.0000
     1.0000   1.0000   1.0000   1.0000   1.0000   1.0000   1.0000   1.0000
     1.0000   1.0000   1.0000   1.0000   1.0000   1.0000   1.0000   1.0000
     1.0000   1.0000   1.0000   1.0000   1.0000   1.0000   1.0000   1.0000
     1.0000   1.0000   1.0000   1.0000   1.0000   1.0000   1.0000   1.0000
     1.0000   1.0000   1.0000   1.0000   1.0000   1.0000   1.0000   1.0000
     1.0000   1.0000  -0.0086   0.0000   0.0000   0.0000   0.0000   0.0000
     0.0000   0.0000   0.0000   0.0000   0.0000   0.0000   0.0000

          k = 0.0000 0.4000 0.2021 ( 18125 PWs)   bands (ev):

   -29.3373 -29.3342 -29.3277 -29.3252 -10.8876 -10.8665 -10.7616 -10.7027
   -10.6076 -10.5616 -10.3818 -10.3784 -10.1999 -10.1848 -10.1500 -10.1383
    -8.3295  -8.0989  -7.5597  -7.4261  -7.4160  -7.3785  -7.3625  -7.2867
     2.7853   2.9082   3.5761   3.6706   3.7407   4.0995   4.5091   4.5243
     4.7812   4.9115   5.0160   5.0413   5.1452   5.1860   5.2988   5.3304
     5.4844   5.5027   5.5242   5.5763   5.6110   5.6251   5.7495   5.7679
     6.7884   7.0308   7.0535   7.3147   7.3738   7.3755   7.7596   8.0904
     8.1841   8.2068   8.2504   8.2748   8.2771   8.3127   8.3411   8.4524
     8.5750   8.6287  10.2454  11.0497  12.2917  13.0494  14.6008  14.6464
    14.8520  14.9100  15.0191  15.0469  15.6701  15.6890  15.7459

     occupation numbers 
     1.0000   1.0000   1.0000   1.0000   1.0000   1.0000   1.0000   1.0000
     1.0000   1.0000   1.0000   1.0000   1.0000   1.0000   1.0000   1.0000
     1.0000   1.0000   1.0000   1.0000   1.0000   1.0000   1.0000   1.0000
     1.0000   1.0000   1.0000   1.0000   1.0000   1.0000   1.0000   1.0000
     1.0000   1.0000   1.0000   1.0000   1.0000   1.0000   1.0000   1.0000
     1.0000   1.0000   1.0000   1.0000   1.0000   1.0000   1.0000   1.0000
     1.0000   1.0000   1.0000   1.0000   1.0000   1.0000   1.0000   1.0000
     1.0000   1.0000   1.0000   1.0000   1.0000   1.0000   1.0000   1.0000
     1.0000   1.0000  -0.0073   0.0000   0.0000   0.0000   0.0000   0.0000
     0.0000   0.0000   0.0000   0.0000   0.0000   0.0000   0.0000

          k = 0.0000 0.4000 0.4042 ( 18121 PWs)   bands (ev):

   -29.3246 -29.3217 -29.3154 -29.3129 -10.8082 -10.7897 -10.7154 -10.6525
   -10.6091 -10.5368 -10.3779 -10.3655 -10.3632 -10.3598 -10.2843 -10.2644
    -8.1516  -7.9679  -7.5069  -7.4656  -7.4181  -7.4082  -7.3903  -7.3637
     2.8550   2.9435   3.5959   3.7008   3.8178   4.1283   4.5114   4.5545
     4.7437   4.8726   4.8972   4.9016   5.0365   5.0432   5.2636   5.3230
     5.5202   5.5233   5.5279   5.5533   5.7336   5.7601   5.7716   5.7897
     6.7476   6.8399   7.1760   7.2091   7.2169   7.4193   7.6407   7.9394
     8.0085   8.1218   8.1454   8.1594   8.1987   8.2274   8.2999   8.3256
     8.5197   8.5675  10.2904  11.0742  12.7141  13.4136  14.2371  14.4818
    15.0429  15.0641  15.3305  15.4209  15.6587  15.7682  16.0490

     occupation numbers 
     1.0000   1.0000   1.0000   1.0000   1.0000   1.0000   1.0000   1.0000
     1.0000   1.0000   1.0000   1.0000   1.0000   1.0000   1.0000   1.0000
     1.0000   1.0000   1.0000   1.0000   1.0000   1.0000   1.0000   1.0000
     1.0000   1.0000   1.0000   1.0000   1.0000   1.0000   1.0000   1.0000
     1.0000   1.0000   1.0000   1.0000   1.0000   1.0000   1.0000   1.0000
     1.0000   1.0000   1.0000   1.0000   1.0000   1.0000   1.0000   1.0000
     1.0000   1.0000   1.0000   1.0000   1.0000   1.0000   1.0000   1.0000
     1.0000   1.0000   1.0000   1.0000   1.0000   1.0000   1.0000   1.0000
     1.0000   1.0000  -0.0044   0.0000   0.0000   0.0000   0.0000   0.0000
     0.0000   0.0000   0.0000   0.0000   0.0000   0.0000   0.0000

          k = 0.0000 0.4000 0.6063 ( 18136 PWs)   bands (ev):

   -29.3072 -29.3045 -29.2987 -29.2961 -10.7528 -10.7232 -10.6920 -10.6778
   -10.5993 -10.5666 -10.5059 -10.4333 -10.4111 -10.3913 -10.3378 -10.3342
    -7.9563  -7.8446  -7.5805  -7.4928  -7.4454  -7.4143  -7.4086  -7.3861
     2.9444   2.9882   3.6256   3.7413   3.9159   4.1584   4.5123   4.5935
     4.6804   4.7156   4.7232   4.8138   4.8266   4.9001   5.0740   5.2037
     5.5088   5.5191   5.6421   5.6977   5.7157   5.8216   5.9983   6.0056
     6.5889   6.6339   7.1182   7.1304   7.3470   7.4856   7.5634   7.5883
     7.8141   7.8689   7.9970   8.0516   8.0679   8.1142   8.3720   8.3754
     8.4334   8.5336  10.3538  11.1052  13.2463  13.3966  13.7898  13.8508
    15.6456  15.6746  15.7158  15.7985  15.8117  15.9760  16.2233

     occupation numbers 
     1.0000   1.0000   1.0000   1.0000   1.0000   1.0000   1.0000   1.0000
     1.0000   1.0000   1.0000   1.0000   1.0000   1.0000   1.0000   1.0000
     1.0000   1.0000   1.0000   1.0000   1.0000   1.0000   1.0000   1.0000
     1.0000   1.0000   1.0000   1.0000   1.0000   1.0000   1.0000   1.0000
     1.0000   1.0000   1.0000   1.0000   1.0000   1.0000   1.0000   1.0000
     1.0000   1.0000   1.0000   1.0000   1.0000   1.0000   1.0000   1.0000
     1.0000   1.0000   1.0000   1.0000   1.0000   1.0000   1.0000   1.0000
     1.0000   1.0000   1.0000   1.0000   1.0000   1.0000   1.0000   1.0000
     1.0000   1.0000  -0.0019   0.0000   0.0000   0.0000   0.0000   0.0000
     0.0000   0.0000   0.0000   0.0000   0.0000   0.0000   0.0000

          k = 0.0000 0.4000 0.8084 ( 18169 PWs)   bands (ev):

   -29.2897 -29.2874 -29.2819 -29.2793 -10.9584 -10.8797 -10.7080 -10.6542
   -10.5651 -10.5560 -10.4679 -10.4389 -10.3935 -10.3744 -10.3121 -10.3084
    -7.8019  -7.7937  -7.7110  -7.6204  -7.4470  -7.3937  -7.3590  -7.3548
     3.0263   3.0290   3.6591   3.7816   4.0103   4.1815   4.5036   4.5082
     4.5378   4.5528   4.6342   4.6665   4.7304   4.7693   4.8705   5.0785
     5.4838   5.4892   5.7008   5.7037   5.8426   5.8534   6.2682   6.2695
     6.5362   6.5475   7.0497   7.1138   7.2808   7.3234   7.5201   7.5515
     7.7061   7.7301   7.8847   7.9548   7.9616   8.0291   8.2234   8.4429
     8.4901   8.5587  10.4260  11.1363  12.5311  13.1514  13.7743  14.0365
    15.6334  15.8323  16.2288  16.2615  16.2810  16.3826  16.3955

     occupation numbers 
     1.0000   1.0000   1.0000   1.0000   1.0000   1.0000   1.0000   1.0000
     1.0000   1.0000   1.0000   1.0000   1.0000   1.0000   1.0000   1.0000
     1.0000   1.0000   1.0000   1.0000   1.0000   1.0000   1.0000   1.0000
     1.0000   1.0000   1.0000   1.0000   1.0000   1.0000   1.0000   1.0000
     1.0000   1.0000   1.0000   1.0000   1.0000   1.0000   1.0000   1.0000
     1.0000   1.0000   1.0000   1.0000   1.0000   1.0000   1.0000   1.0000
     1.0000   1.0000   1.0000   1.0000   1.0000   1.0000   1.0000   1.0000
     1.0000   1.0000   1.0000   1.0000   1.0000   1.0000   1.0000   1.0000
     1.0000   1.0000  -0.0003   0.0000   0.0000   0.0000   0.0000   0.0000
     0.0000   0.0000   0.0000   0.0000   0.0000   0.0000   0.0000

          k = 0.0000 0.4000 1.0105 ( 18164 PWs)   bands (ev):

   -29.2768 -29.2747 -29.2695 -29.2668 -11.1047 -11.0137 -10.8261 -10.7553
   -10.4635 -10.4589 -10.4057 -10.3916 -10.3538 -10.3408 -10.2932 -10.2895
    -7.8248  -7.7886  -7.7261  -7.7109  -7.4764  -7.3609  -7.3184  -7.2942
     3.0568   3.0813   3.6869   3.8122   4.0855   4.2048   4.3465   4.3548
     4.4185   4.4816   4.5873   4.5877   4.6949   4.7244   4.7482   4.9837
     5.4577   5.4694   5.6753   5.6993   5.8763   5.8975   6.3493   6.3954
     6.7029   6.8252   6.9916   7.0894   7.1140   7.1639   7.3782   7.5855
     7.6454   7.8101   7.8230   7.8819   7.9080   7.9718   8.1153   8.4604
     8.4958   8.6641  10.4927  11.1636  11.8538  12.5964  14.1160  14.2047
    15.6243  15.8586  16.0484  16.1856  16.4039  16.6210  16.8271

     occupation numbers 
     1.0000   1.0000   1.0000   1.0000   1.0000   1.0000   1.0000   1.0000
     1.0000   1.0000   1.0000   1.0000   1.0000   1.0000   1.0000   1.0000
     1.0000   1.0000   1.0000   1.0000   1.0000   1.0000   1.0000   1.0000
     1.0000   1.0000   1.0000   1.0000   1.0000   1.0000   1.0000   1.0000
     1.0000   1.0000   1.0000   1.0000   1.0000   1.0000   1.0000   1.0000
     1.0000   1.0000   1.0000   1.0000   1.0000   1.0000   1.0000   1.0000
     1.0000   1.0000   1.0000   1.0000   1.0000   1.0000   1.0000   1.0000
     1.0000   1.0000   1.0000   1.0000   1.0000   1.0000   1.0000   1.0000
     1.0000   1.0000   0.0000   0.0000   0.0000   0.0000   0.0000   0.0000
     0.0000   0.0000   0.0000   0.0000   0.0000   0.0000   0.0000

          k = 0.0000 0.4000-1.2126 ( 18158 PWs)   bands (ev):

   -29.2720 -29.2701 -29.2650 -29.2622 -11.1567 -11.0624 -10.8694 -10.7947
   -10.4240 -10.4213 -10.3805 -10.3704 -10.3383 -10.3272 -10.2862 -10.2825
    -7.8633  -7.7985  -7.7635  -7.6867  -7.4883  -7.3499  -7.3015  -7.2666
     3.0667   3.1003   3.6979   3.8242   4.1200   4.2503   4.2509   4.2826
     4.3618   4.4437   4.5561   4.5697   4.7073   4.7086   4.7109   4.9468
     5.4480   5.4611   5.6526   5.6985   5.8845   5.9016   6.3729   6.4140
     6.9498   6.9535   6.9559   7.0276   7.0402   7.1335   7.3137   7.4846
     7.6918   7.8010   7.8497   7.8581   7.8987   7.9401   8.0774   8.4518
     8.5169   8.7072  10.5231  11.1803  11.5840  12.3778  14.1233  14.3885
    15.6209  15.8685  15.9797  16.1385  16.4833  16.6847  16.9062

     occupation numbers 
     1.0000   1.0000   1.0000   1.0000   1.0000   1.0000   1.0000   1.0000
     1.0000   1.0000   1.0000   1.0000   1.0000   1.0000   1.0000   1.0000
     1.0000   1.0000   1.0000   1.0000   1.0000   1.0000   1.0000   1.0000
     1.0000   1.0000   1.0000   1.0000   1.0000   1.0000   1.0000   1.0000
     1.0000   1.0000   1.0000   1.0000   1.0000   1.0000   1.0000   1.0000
     1.0000   1.0000   1.0000   1.0000   1.0000   1.0000   1.0000   1.0000
     1.0000   1.0000   1.0000   1.0000   1.0000   1.0000   1.0000   1.0000
     1.0000   1.0000   1.0000   1.0000   1.0000   1.0000   1.0000   1.0000
     1.0000   1.0001   0.0000   0.0000   0.0000   0.0000   0.0000   0.0000
     0.0000   0.0000   0.0000   0.0000   0.0000   0.0000   0.0000

          k = 0.2000 0.2000 0.0000 ( 18087 PWs)   bands (ev):

   -29.3436 -29.3353 -29.3353 -29.3285 -10.8944 -10.8890 -10.8439 -10.8289
   -10.4712 -10.4441 -10.4397 -10.4393 -10.1168 -10.1027 -10.1027 -10.0872
    -8.5309  -7.8627  -7.8622  -7.4505  -7.4067  -7.3626  -7.3059  -7.1863
     2.6120   2.9028   3.4682   3.5440   3.5867   4.4795   4.5634   4.7794
     5.0353   5.0556   5.0782   5.0784   5.1539   5.1543   5.2179   5.2694
     5.3419   5.3666   5.5490   5.5897   5.6745   5.6764   5.6790   5.6813
     6.7267   6.7304   7.2950   7.3721   7.5145   7.5196   7.5317   7.8851
     8.0862   8.3000   8.3105   8.3565   8.4406   8.4513   8.5165   8.5511
     8.6904   8.6981   9.6969  11.4583  11.7083  13.7304  13.7408  14.2559
    14.9292  15.1410  15.1585  15.2494  15.5046  15.6606  15.6644

     occupation numbers 
     1.0000   1.0000   1.0000   1.0000   1.0000   1.0000   1.0000   1.0000
     1.0000   1.0000   1.0000   1.0000   1.0000   1.0000   1.0000   1.0000
     1.0000   1.0000   1.0000   1.0000   1.0000   1.0000   1.0000   1.0000
     1.0000   1.0000   1.0000   1.0000   1.0000   1.0000   1.0000   1.0000
     1.0000   1.0000   1.0000   1.0000   1.0000   1.0000   1.0000   1.0000
     1.0000   1.0000   1.0000   1.0000   1.0000   1.0000   1.0000   1.0000
     1.0000   1.0000   1.0000   1.0000   1.0000   1.0000   1.0000   1.0000
     1.0000   1.0000   1.0000   1.0000   1.0000   1.0000   1.0000   1.0000
     1.0000   1.0000   0.0222   0.0000   0.0000   0.0000   0.0000   0.0000
     0.0000   0.0000   0.0000   0.0000   0.0000   0.0000   0.0000

          k = 0.2000 0.2000 0.2021 ( 18103 PWs)   bands (ev):

   -29.3390 -29.3308 -29.3308 -29.3241 -10.8680 -10.8629 -10.8198 -10.8041
   -10.4728 -10.4348 -10.4332 -10.4327 -10.2073 -10.1667 -10.1667 -10.1332
    -8.4422  -7.8227  -7.8224  -7.4418  -7.4258  -7.3821  -7.3242  -7.2109
     2.6444   2.9111   3.4712   3.5818   3.5981   4.4736   4.5569   4.7687
     5.0346   5.0363   5.0462   5.0548   5.0974   5.1002   5.2336   5.2881
     5.3682   5.4100   5.5861   5.6330   5.6580   5.6583   5.6622   5.6673
     6.7638   6.7681   7.2742   7.3168   7.4063   7.4586   7.4776   7.9179
     8.0849   8.1776   8.2461   8.3194   8.3543   8.4950   8.5073   8.5524
     8.5968   8.6099   9.7185  11.4629  11.8912  13.8786  13.8918  14.4065
    14.7699  15.1366  15.1523  15.2776  15.6467  15.6760  15.6833

     occupation numbers 
     1.0000   1.0000   1.0000   1.0000   1.0000   1.0000   1.0000   1.0000
     1.0000   1.0000   1.0000   1.0000   1.0000   1.0000   1.0000   1.0000
     1.0000   1.0000   1.0000   1.0000   1.0000   1.0000   1.0000   1.0000
     1.0000   1.0000   1.0000   1.0000   1.0000   1.0000   1.0000   1.0000
     1.0000   1.0000   1.0000   1.0000   1.0000   1.0000   1.0000   1.0000
     1.0000   1.0000   1.0000   1.0000   1.0000   1.0000   1.0000   1.0000
     1.0000   1.0000   1.0000   1.0000   1.0000   1.0000   1.0000   1.0000
     1.0000   1.0000   1.0000   1.0000   1.0000   1.0000   1.0000   1.0000
     1.0000   1.0000   0.0142   0.0000   0.0000   0.0000   0.0000   0.0000
     0.0000   0.0000   0.0000   0.0000   0.0000   0.0000   0.0000

          k = 0.2000 0.2000 0.4042 ( 18132 PWs)   bands (ev):

   -29.3261 -29.3185 -29.3185 -29.3118 -10.7948 -10.7905 -10.7528 -10.7343
   -10.5418 -10.4297 -10.4293 -10.4094 -10.3507 -10.3142 -10.3141 -10.2555
    -8.2372  -7.7373  -7.7351  -7.4670  -7.4265  -7.4181  -7.3778  -7.2802
     2.7320   2.9333   3.4796   3.6279   3.6818   4.4541   4.5346   4.7373
     4.9247   4.9338   4.9377   4.9412   5.0343   5.0882   5.2429   5.3103
     5.4157   5.5475   5.5911   5.5928   5.6110   5.6259   5.7601   5.7841
     6.8576   6.8585   6.9411   7.2142   7.3191   7.3509   7.4989   7.8586
     7.9186   8.0377   8.1002   8.2249   8.2463   8.3719   8.3822   8.5006
     8.5132   8.5840   9.7783  11.4752  12.3572  14.1078  14.1721  14.1997
    14.8537  15.1616  15.1677  15.6086  15.7376  15.7508  16.0111

     occupation numbers 
     1.0000   1.0000   1.0000   1.0000   1.0000   1.0000   1.0000   1.0000
     1.0000   1.0000   1.0000   1.0000   1.0000   1.0000   1.0000   1.0000
     1.0000   1.0000   1.0000   1.0000   1.0000   1.0000   1.0000   1.0000
     1.0000   1.0000   1.0000   1.0000   1.0000   1.0000   1.0000   1.0000
     1.0000   1.0000   1.0000   1.0000   1.0000   1.0000   1.0000   1.0000
     1.0000   1.0000   1.0000   1.0000   1.0000   1.0000   1.0000   1.0000
     1.0000   1.0000   1.0000   1.0000   1.0000   1.0000   1.0000   1.0000
     1.0000   1.0000   1.0000   1.0000   1.0000   1.0000   1.0000   1.0000
     1.0000   1.0002   0.0026   0.0000   0.0000   0.0000   0.0000   0.0000
     0.0000   0.0000   0.0000   0.0000   0.0000   0.0000   0.0000

          k = 0.2000 0.2000 0.6063 ( 18138 PWs)   bands (ev):

   -29.3086 -29.3016 -29.3016 -29.2949 -10.7696 -10.7044 -10.7018 -10.6622
   -10.6333 -10.5512 -10.5504 -10.4109 -10.3742 -10.3590 -10.3521 -10.3517
    -8.0080  -7.7148  -7.6971  -7.4593  -7.4548  -7.4302  -7.3981  -7.3686
     2.8491   2.9628   3.4911   3.6663   3.8115   4.4189   4.4886   4.6879
     4.7199   4.7244   4.7773   4.7954   5.0079   5.1360   5.1582   5.3071
     5.3919   5.4966   5.5082   5.5827   5.6812   5.7874   5.9806   6.0076
     6.6287   6.9112   6.9370   7.1203   7.2100   7.2629   7.4876   7.6261
     7.8815   7.9099   7.9102   8.1074   8.1441   8.1561   8.1600   8.4698
     8.5668   8.6239   9.8668  11.4915  12.9621  13.1815  14.1655  14.2169
    15.4301  15.4344  15.5627  15.8623  15.9344  15.9483  16.0898

     occupation numbers 
     1.0000   1.0000   1.0000   1.0000   1.0000   1.0000   1.0000   1.0000
     1.0000   1.0000   1.0000   1.0000   1.0000   1.0000   1.0000   1.0000
     1.0000   1.0000   1.0000   1.0000   1.0000   1.0000   1.0000   1.0000
     1.0000   1.0000   1.0000   1.0000   1.0000   1.0000   1.0000   1.0000
     1.0000   1.0000   1.0000   1.0000   1.0000   1.0000   1.0000   1.0000
     1.0000   1.0000   1.0000   1.0000   1.0000   1.0000   1.0000   1.0000
     1.0000   1.0000   1.0000   1.0000   1.0000   1.0000   1.0000   1.0000
     1.0000   1.0000   1.0000   1.0000   1.0000   1.0000   1.0000   1.0000
     1.0000   1.0019  -0.0004   0.0000   0.0000   0.0000   0.0000   0.0000
     0.0000   0.0000   0.0000   0.0000   0.0000   0.0000   0.0000

          k = 0.2000 0.2000 0.8084 ( 18153 PWs)   bands (ev):

   -29.2909 -29.2847 -29.2847 -29.2780 -10.9952 -10.7864 -10.7864 -10.6336
   -10.5379 -10.5358 -10.5245 -10.4913 -10.3387 -10.3333 -10.3252 -10.3247
    -7.8116  -7.7912  -7.7615  -7.5511  -7.4956  -7.3681  -7.3555  -7.3476
     2.9627   2.9913   3.5025   3.7028   3.9359   4.3629   4.3899   4.5027
     4.5478   4.6051   4.6589   4.6601   4.9441   4.9793   5.1862   5.2731
     5.3909   5.3921   5.4207   5.5822   5.7348   6.0502   6.1811   6.2870
     6.5697   6.8265   6.8972   6.9780   7.2102   7.2529   7.3152   7.7404
     7.7480   7.7625   7.8434   7.9747   7.9948   7.9970   8.0653   8.4490
     8.6534   8.6751   9.9722  11.5077  12.2354  13.6019  13.8261  13.8932
    15.7303  15.7345  15.9182  16.0986  16.2233  16.3830  16.3831

     occupation numbers 
     1.0000   1.0000   1.0000   1.0000   1.0000   1.0000   1.0000   1.0000
     1.0000   1.0000   1.0000   1.0000   1.0000   1.0000   1.0000   1.0000
     1.0000   1.0000   1.0000   1.0000   1.0000   1.0000   1.0000   1.0000
     1.0000   1.0000   1.0000   1.0000   1.0000   1.0000   1.0000   1.0000
     1.0000   1.0000   1.0000   1.0000   1.0000   1.0000   1.0000   1.0000
     1.0000   1.0000   1.0000   1.0000   1.0000   1.0000   1.0000   1.0000
     1.0000   1.0000   1.0000   1.0000   1.0000   1.0000   1.0000   1.0000
     1.0000   1.0000   1.0000   1.0000   1.0000   1.0000   1.0000   1.0000
     1.0000   1.0047  -0.0000   0.0000   0.0000   0.0000   0.0000   0.0000
     0.0000   0.0000   0.0000   0.0000   0.0000   0.0000   0.0000

          k = 0.2000 0.2000 1.0105 ( 18152 PWs)   bands (ev):

   -29.2778 -29.2723 -29.2723 -29.2654 -11.1485 -10.9123 -10.9123 -10.7192
   -10.4495 -10.4485 -10.4389 -10.4349 -10.3124 -10.3110 -10.3020 -10.3015
    -7.8730  -7.8395  -7.6810  -7.6256  -7.5823  -7.3231  -7.2932  -7.2841
     3.0116   3.0435   3.5109   3.7294   4.0275   4.2515   4.2619   4.3949
     4.4768   4.4990   4.5634   4.6140   4.7417   4.9566   5.2298   5.2332
     5.3102   5.3484   5.4030   5.5954   5.7338   6.2924   6.3196   6.3674
     6.6963   6.8078   6.8430   6.8627   7.0976   7.3379   7.3965   7.6313
     7.6571   7.7984   7.8185   7.8589   7.8999   7.9291   8.0177   8.4399
     8.6705   8.7844  10.0687  11.4940  11.5194  13.4713  13.5482  14.1733
    15.8846  15.8942  15.9796  15.9940  16.1362  16.4199  16.4263

     occupation numbers 
     1.0000   1.0000   1.0000   1.0000   1.0000   1.0000   1.0000   1.0000
     1.0000   1.0000   1.0000   1.0000   1.0000   1.0000   1.0000   1.0000
     1.0000   1.0000   1.0000   1.0000   1.0000   1.0000   1.0000   1.0000
     1.0000   1.0000   1.0000   1.0000   1.0000   1.0000   1.0000   1.0000
     1.0000   1.0000   1.0000   1.0000   1.0000   1.0000   1.0000   1.0000
     1.0000   1.0000   1.0000   1.0000   1.0000   1.0000   1.0000   1.0000
     1.0000   1.0000   1.0000   1.0000   1.0000   1.0000   1.0000   1.0000
     1.0000   1.0000   1.0000   1.0000   1.0000   1.0000   1.0000   1.0000
     1.0000   1.0079   0.0000   0.0000   0.0000   0.0000   0.0000   0.0000
     0.0000   0.0000   0.0000   0.0000   0.0000   0.0000   0.0000

          k = 0.2000 0.2000-1.2126 ( 18156 PWs)   bands (ev):

   -29.2730 -29.2677 -29.2677 -29.2608 -11.2025 -10.9587 -10.9587 -10.7568
   -10.4137 -10.4131 -10.4061 -10.4059 -10.3027 -10.3025 -10.2932 -10.2928
    -7.9063  -7.8719  -7.6547  -7.6352  -7.6158  -7.3140  -7.2655  -7.2572
     3.0190   3.0725   3.5140   3.7395   4.0627   4.1927   4.2058   4.3727
     4.4555   4.4576   4.5284   4.6059   4.6564   4.9479   5.2164   5.2543
     5.2792   5.3131   5.4088   5.6023   5.7259   6.3642   6.3849   6.4254
     6.6063   6.7373   6.8287   7.0507   7.0693   7.3740   7.4293   7.5944
     7.6187   7.7637   7.8093   7.8192   7.8686   7.9353   8.0022   8.4376
     8.6760   8.8325  10.1106  11.2015  11.5236  13.3233  13.4032  14.4389
    15.9375  15.9439  15.9557  16.0569  16.1161  16.3655  16.3735

     occupation numbers 
     1.0000   1.0000   1.0000   1.0000   1.0000   1.0000   1.0000   1.0000
     1.0000   1.0000   1.0000   1.0000   1.0000   1.0000   1.0000   1.0000
     1.0000   1.0000   1.0000   1.0000   1.0000   1.0000   1.0000   1.0000
     1.0000   1.0000   1.0000   1.0000   1.0000   1.0000   1.0000   1.0000
     1.0000   1.0000   1.0000   1.0000   1.0000   1.0000   1.0000   1.0000
     1.0000   1.0000   1.0000   1.0000   1.0000   1.0000   1.0000   1.0000
     1.0000   1.0000   1.0000   1.0000   1.0000   1.0000   1.0000   1.0000
     1.0000   1.0000   1.0000   1.0000   1.0000   1.0000   1.0000   1.0000
     1.0000   1.0096   0.0000   0.0000   0.0000   0.0000   0.0000   0.0000
     0.0000   0.0000   0.0000   0.0000   0.0000   0.0000   0.0000

          k = 0.2000 0.4000 0.0000 ( 18074 PWs)   bands (ev):

   -29.3411 -29.3379 -29.3331 -29.3305 -10.8749 -10.8545 -10.7755 -10.7255
   -10.6139 -10.5761 -10.4495 -10.4441 -10.1125 -10.1071 -10.0979 -10.0920
    -8.3284  -8.0823  -7.6849  -7.4779  -7.4097  -7.3839  -7.3112  -7.2374
     2.9059   3.0225   3.5633   3.6523   3.8095   4.1651   4.4017   4.4077
     4.7101   4.8656   5.1025   5.1315   5.1902   5.2126   5.2250   5.2357
     5.3259   5.3297   5.5127   5.5338   5.5625   5.5775   5.6773   5.6790
     6.9521   7.0684   7.2375   7.3050   7.5769   7.5895   7.8221   7.8231
     8.0129   8.1400   8.2442   8.3018   8.3761   8.5057   8.5344   8.6060
     8.7571   8.7600  10.2543  10.9635  12.2521  12.9980  14.0272  14.4727
    14.6250  15.0235  15.1823  15.2139  15.6247  15.6274  15.7505

     occupation numbers 
     1.0000   1.0000   1.0000   1.0000   1.0000   1.0000   1.0000   1.0000
     1.0000   1.0000   1.0000   1.0000   1.0000   1.0000   1.0000   1.0000
     1.0000   1.0000   1.0000   1.0000   1.0000   1.0000   1.0000   1.0000
     1.0000   1.0000   1.0000   1.0000   1.0000   1.0000   1.0000   1.0000
     1.0000   1.0000   1.0000   1.0000   1.0000   1.0000   1.0000   1.0000
     1.0000   1.0000   1.0000   1.0000   1.0000   1.0000   1.0000   1.0000
     1.0000   1.0000   1.0000   1.0000   1.0000   1.0000   1.0000   1.0000
     1.0000   1.0000   1.0000   1.0000   1.0000   1.0000   1.0000   1.0000
     1.0000   1.0000  -0.0019   0.0000   0.0000   0.0000   0.0000   0.0000
     0.0000   0.0000   0.0000   0.0000   0.0000   0.0000   0.0000

          k = 0.2000 0.4000 0.2021 ( 18104 PWs)   bands (ev):

   -29.3364 -29.3333 -29.3286 -29.3260 -10.8493 -10.8297 -10.7566 -10.7064
   -10.6057 -10.5646 -10.4429 -10.4376 -10.1892 -10.1756 -10.1530 -10.1412
    -8.2617  -8.0344  -7.6665  -7.4816  -7.4076  -7.3926  -7.3293  -7.2585
     2.9324   3.0350   3.5691   3.6647   3.8350   4.1739   4.4077   4.4098
     4.7069   4.8596   5.0576   5.0804   5.1502   5.1838   5.2230   5.2360
     5.3550   5.3683   5.4872   5.5013   5.6137   5.6272   5.6620   5.6629
     6.9446   7.1008   7.1762   7.3360   7.4724   7.5121   7.7772   7.8516
     7.9910   8.0955   8.1865   8.2396   8.2790   8.4408   8.5083   8.5589
     8.7617   8.7705  10.2694  10.9720  12.4147  13.1436  14.1446  14.5144
    14.7466  15.1015  15.1128  15.1187  15.6326  15.6987  15.7534

     occupation numbers 
     1.0000   1.0000   1.0000   1.0000   1.0000   1.0000   1.0000   1.0000
     1.0000   1.0000   1.0000   1.0000   1.0000   1.0000   1.0000   1.0000
     1.0000   1.0000   1.0000   1.0000   1.0000   1.0000   1.0000   1.0000
     1.0000   1.0000   1.0000   1.0000   1.0000   1.0000   1.0000   1.0000
     1.0000   1.0000   1.0000   1.0000   1.0000   1.0000   1.0000   1.0000
     1.0000   1.0000   1.0000   1.0000   1.0000   1.0000   1.0000   1.0000
     1.0000   1.0000   1.0000   1.0000   1.0000   1.0000   1.0000   1.0000
     1.0000   1.0000   1.0000   1.0000   1.0000   1.0000   1.0000   1.0000
     1.0000   1.0000  -0.0015   0.0000   0.0000   0.0000   0.0000   0.0000
     0.0000   0.0000   0.0000   0.0000   0.0000   0.0000   0.0000

          k = 0.2000 0.4000 0.4042 ( 18133 PWs)   bands (ev):

   -29.3238 -29.3208 -29.3163 -29.3138 -10.7782 -10.7608 -10.7107 -10.6547
   -10.6088 -10.5393 -10.4352 -10.4352 -10.3376 -10.3246 -10.2889 -10.2693
    -8.1039  -7.9235  -7.6312  -7.4990  -7.4151  -7.4022  -7.3701  -7.3146
     3.0024   3.0674   3.5858   3.6980   3.9019   4.1947   4.4055   4.4278
     4.6998   4.8426   4.9359   4.9412   5.0414   5.0454   5.2194   5.2485
     5.3279   5.3512   5.5332   5.5467   5.6067   5.6097   5.7769   5.7872
     6.9025   6.9698   7.1829   7.3164   7.3844   7.4205   7.6660   7.8334
     7.9093   7.9790   8.0303   8.0449   8.1369   8.2277   8.4444   8.4942
     8.7697   8.7984  10.3100  10.9940  12.8247  13.4867  14.2021  14.2447
    15.0910  15.1122  15.2754  15.3077  15.6515  15.6908  16.0001

     occupation numbers 
     1.0000   1.0000   1.0000   1.0000   1.0000   1.0000   1.0000   1.0000
     1.0000   1.0000   1.0000   1.0000   1.0000   1.0000   1.0000   1.0000
     1.0000   1.0000   1.0000   1.0000   1.0000   1.0000   1.0000   1.0000
     1.0000   1.0000   1.0000   1.0000   1.0000   1.0000   1.0000   1.0000
     1.0000   1.0000   1.0000   1.0000   1.0000   1.0000   1.0000   1.0000
     1.0000   1.0000   1.0000   1.0000   1.0000   1.0000   1.0000   1.0000
     1.0000   1.0000   1.0000   1.0000   1.0000   1.0000   1.0000   1.0000
     1.0000   1.0000   1.0000   1.0000   1.0000   1.0000   1.0000   1.0000
     1.0000   1.0001  -0.0007   0.0000   0.0000   0.0000   0.0000   0.0000
     0.0000   0.0000   0.0000   0.0000   0.0000   0.0000   0.0000

          k = 0.2000 0.4000 0.6063 ( 18152 PWs)   bands (ev):

   -29.3064 -29.3037 -29.2995 -29.2970 -10.7433 -10.7153 -10.6887 -10.6720
   -10.5917 -10.5573 -10.5062 -10.4347 -10.4144 -10.3937 -10.3599 -10.3556
    -7.9278  -7.8172  -7.6362  -7.5439  -7.4293  -7.4080  -7.3916  -7.3706
     3.0919   3.1081   3.6113   3.7422   3.9881   4.2159   4.3980   4.4388
     4.6935   4.7522   4.7635   4.8248   4.8323   4.9015   5.0715   5.1837
     5.2993   5.3040   5.4780   5.5143   5.7450   5.7861   6.0106   6.0179
     6.7309   6.8090   7.1993   7.2554   7.2929   7.5207   7.5643   7.6350
     7.7561   7.8654   7.8729   7.8958   8.0184   8.0207   8.2931   8.4489
     8.7833   8.8491  10.3666  11.0226  13.3222  13.4636  13.7916  13.8477
    15.4691  15.5219  15.6255  15.7692  15.7762  15.9303  16.2070

     occupation numbers 
     1.0000   1.0000   1.0000   1.0000   1.0000   1.0000   1.0000   1.0000
     1.0000   1.0000   1.0000   1.0000   1.0000   1.0000   1.0000   1.0000
     1.0000   1.0000   1.0000   1.0000   1.0000   1.0000   1.0000   1.0000
     1.0000   1.0000   1.0000   1.0000   1.0000   1.0000   1.0000   1.0000
     1.0000   1.0000   1.0000   1.0000   1.0000   1.0000   1.0000   1.0000
     1.0000   1.0000   1.0000   1.0000   1.0000   1.0000   1.0000   1.0000
     1.0000   1.0000   1.0000   1.0000   1.0000   1.0000   1.0000   1.0000
     1.0000   1.0000   1.0000   1.0000   1.0000   1.0000   1.0000   1.0000
     1.0000   1.0021  -0.0001   0.0000   0.0000   0.0000   0.0000   0.0000
     0.0000   0.0000   0.0000   0.0000   0.0000   0.0000   0.0000

          k = 0.2000 0.4000 0.8084 ( 18162 PWs)   bands (ev):

   -29.2889 -29.2866 -29.2826 -29.2800 -10.9395 -10.8627 -10.7450 -10.6892
   -10.5297 -10.5217 -10.4659 -10.4403 -10.3923 -10.3760 -10.3323 -10.3282
    -7.7844  -7.7705  -7.7062  -7.6190  -7.4585  -7.4071  -7.3696  -7.3647
     3.1453   3.1736   3.6413   3.7865   4.0725   4.2322   4.3884   4.4253
     4.5443   4.5934   4.6103   4.7174   4.7370   4.8011   4.8651   5.0609
     5.2802   5.2833   5.4072   5.4707   5.8879   6.0083   6.2803   6.3179
     6.6269   6.7232   7.1019   7.2136   7.2486   7.3696   7.5517   7.5641
     7.5950   7.7835   7.7885   7.8265   7.8879   7.9344   8.1381   8.3864
     8.8043   8.9168  10.4296  11.0514  12.6575  13.2409  13.7593  13.8688
    15.6291  15.7197  16.0165  16.1006  16.3381  16.3936  16.4097

     occupation numbers 
     1.0000   1.0000   1.0000   1.0000   1.0000   1.0000   1.0000   1.0000
     1.0000   1.0000   1.0000   1.0000   1.0000   1.0000   1.0000   1.0000
     1.0000   1.0000   1.0000   1.0000   1.0000   1.0000   1.0000   1.0000
     1.0000   1.0000   1.0000   1.0000   1.0000   1.0000   1.0000   1.0000
     1.0000   1.0000   1.0000   1.0000   1.0000   1.0000   1.0000   1.0000
     1.0000   1.0000   1.0000   1.0000   1.0000   1.0000   1.0000   1.0000
     1.0000   1.0000   1.0000   1.0000   1.0000   1.0000   1.0000   1.0000
     1.0000   1.0000   1.0000   1.0000   1.0000   1.0000   1.0000   1.0000
     1.0000   1.0054   0.0000   0.0000   0.0000   0.0000   0.0000   0.0000
     0.0000   0.0000   0.0000   0.0000   0.0000   0.0000   0.0000

          k = 0.2000 0.4000 1.0105 ( 18181 PWs)   bands (ev):

   -29.2761 -29.2740 -29.2702 -29.2676 -11.0814 -10.9920 -10.8575 -10.7845
   -10.4453 -10.4408 -10.4044 -10.3929 -10.3526 -10.3420 -10.3086 -10.3048
    -7.7907  -7.7638  -7.7001  -7.6902  -7.4976  -7.3820  -7.3461  -7.3271
     3.1708   3.2280   3.6673   3.8214   4.1416   4.2501   4.3646   4.3899
     4.3909   4.4586   4.4764   4.5698   4.7289   4.7375   4.7885   4.9650
     5.2267   5.2354   5.3981   5.4677   5.9431   6.1459   6.4635   6.5159
     6.7395   6.8227   7.0399   7.0869   7.1809   7.2409   7.4199   7.4720
     7.6380   7.7305   7.7692   7.8250   7.8318   7.8878   8.0189   8.3332
     8.8251   8.9795  10.4851  11.0747  12.0230  12.7379  13.7704  14.0327
    15.8451  15.8695  16.1025  16.2143  16.4526  16.6050  16.6255

     occupation numbers 
     1.0000   1.0000   1.0000   1.0000   1.0000   1.0000   1.0000   1.0000
     1.0000   1.0000   1.0000   1.0000   1.0000   1.0000   1.0000   1.0000
     1.0000   1.0000   1.0000   1.0000   1.0000   1.0000   1.0000   1.0000
     1.0000   1.0000   1.0000   1.0000   1.0000   1.0000   1.0000   1.0000
     1.0000   1.0000   1.0000   1.0000   1.0000   1.0000   1.0000   1.0000
     1.0000   1.0000   1.0000   1.0000   1.0000   1.0000   1.0000   1.0000
     1.0000   1.0000   1.0000   1.0000   1.0000   1.0000   1.0000   1.0000
     1.0000   1.0000   1.0000   1.0000   1.0000   1.0000   1.0000   1.0000
     1.0000   1.0087   0.0000   0.0000   0.0000   0.0000   0.0000   0.0000
     0.0000   0.0000   0.0000   0.0000   0.0000   0.0000   0.0000

          k = 0.2000 0.4000-1.2126 ( 18166 PWs)   bands (ev):

   -29.2713 -29.2693 -29.2656 -29.2630 -11.1321 -11.0394 -10.9002 -10.8233
   -10.4111 -10.4083 -10.3795 -10.3714 -10.3372 -10.3282 -10.2996 -10.2959
    -7.8193  -7.7732  -7.7222  -7.6709  -7.5118  -7.3727  -7.3367  -7.3073
     3.1799   3.2467   3.6780   3.8357   4.1743   4.2849   4.2948   4.3247
     4.3902   4.4228   4.4509   4.4781   4.6870   4.7488   4.7824   4.9278
     5.1985   5.2138   5.4019   5.4718   5.9496   6.1833   6.4891   6.5836
     6.8673   6.9588   7.0191   7.0219   7.1105   7.2505   7.3555   7.3654
     7.6619   7.7148   7.7676   7.8082   7.8546   7.8633   7.9730   8.3130
     8.8341   9.0061  10.5093  11.0855  11.7749  12.5393  13.7074  14.1189
    15.9555  15.9872  16.0878  16.2462  16.5510  16.6416  16.7069

     occupation numbers 
     1.0000   1.0000   1.0000   1.0000   1.0000   1.0000   1.0000   1.0000
     1.0000   1.0000   1.0000   1.0000   1.0000   1.0000   1.0000   1.0000
     1.0000   1.0000   1.0000   1.0000   1.0000   1.0000   1.0000   1.0000
     1.0000   1.0000   1.0000   1.0000   1.0000   1.0000   1.0000   1.0000
     1.0000   1.0000   1.0000   1.0000   1.0000   1.0000   1.0000   1.0000
     1.0000   1.0000   1.0000   1.0000   1.0000   1.0000   1.0000   1.0000
     1.0000   1.0000   1.0000   1.0000   1.0000   1.0000   1.0000   1.0000
     1.0000   1.0000   1.0000   1.0000   1.0000   1.0000   1.0000   1.0000
     1.0000   1.0100   0.0000   0.0000   0.0000   0.0000   0.0000   0.0000
     0.0000   0.0000   0.0000   0.0000   0.0000   0.0000   0.0000

          k = 0.4000 0.4000 0.0000 ( 18093 PWs)   bands (ev):

   -29.3386 -29.3356 -29.3356 -29.3328 -10.7640 -10.7633 -10.7615 -10.7189
   -10.6279 -10.5843 -10.5827 -10.5726 -10.1080 -10.1024 -10.1024 -10.0967
    -8.1352  -7.8994  -7.8981  -7.6765  -7.3647  -7.3432  -7.2936  -7.2541
     3.2794   3.3229   3.5696   3.6606   3.9998   4.0562   4.0930   4.3801
     4.5273   4.8050   4.8117   4.8640   5.2060   5.2066   5.2234   5.2242
     5.2948   5.2992   5.5165   5.5208   5.5246   5.5290   5.5667   5.5724
     7.2205   7.2548   7.3396   7.4735   7.6165   7.7657   7.8221   7.8669
     7.8775   8.0474   8.0898   8.1020   8.3487   8.4234   8.4371   8.4755
     9.2019   9.2398  10.3954  10.7164  12.6571  13.3005  13.3222  13.8433
    14.9092  15.1755  15.1898  15.2643  15.6674  15.6843  15.6879

     occupation numbers 
     1.0000   1.0000   1.0000   1.0000   1.0000   1.0000   1.0000   1.0000
     1.0000   1.0000   1.0000   1.0000   1.0000   1.0000   1.0000   1.0000
     1.0000   1.0000   1.0000   1.0000   1.0000   1.0000   1.0000   1.0000
     1.0000   1.0000   1.0000   1.0000   1.0000   1.0000   1.0000   1.0000
     1.0000   1.0000   1.0000   1.0000   1.0000   1.0000   1.0000   1.0000
     1.0000   1.0000   1.0000   1.0000   1.0000   1.0000   1.0000   1.0000
     1.0000   1.0000   1.0000   1.0000   1.0000   1.0000   1.0000   1.0000
     1.0000   1.0000   1.0000   1.0000   1.0000   1.0000   1.0000   1.0000
     1.0000   1.0000  -0.0027   0.0000   0.0000   0.0000   0.0000   0.0000
     0.0000   0.0000   0.0000   0.0000   0.0000   0.0000   0.0000

          k = 0.4000 0.4000 0.2021 ( 18098 PWs)   bands (ev):

   -29.3340 -29.3311 -29.3311 -29.3283 -10.7460 -10.7456 -10.7433 -10.6980
   -10.6217 -10.5722 -10.5706 -10.5575 -10.1737 -10.1613 -10.1613 -10.1494
    -8.0887  -7.8715  -7.8702  -7.6682  -7.3679  -7.3532  -7.3038  -7.2687
     3.3050   3.3320   3.5717   3.6765   4.0100   4.0674   4.1055   4.3852
     4.5366   4.8114   4.8132   4.8695   5.1542   5.1692   5.1707   5.1812
     5.3212   5.3314   5.4824   5.4937   5.4979   5.4989   5.6305   5.6344
     7.2218   7.2507   7.3440   7.4078   7.5759   7.7574   7.7607   7.8203
     7.8546   7.9848   8.0397   8.0405   8.2884   8.3966   8.4067   8.4179
     9.2103   9.2515  10.4057  10.7237  12.8059  13.4294  13.4487  13.9384
    14.9997  15.1918  15.1928  15.2033  15.6313  15.6686  15.6710

     occupation numbers 
     1.0000   1.0000   1.0000   1.0000   1.0000   1.0000   1.0000   1.0000
     1.0000   1.0000   1.0000   1.0000   1.0000   1.0000   1.0000   1.0000
     1.0000   1.0000   1.0000   1.0000   1.0000   1.0000   1.0000   1.0000
     1.0000   1.0000   1.0000   1.0000   1.0000   1.0000   1.0000   1.0000
     1.0000   1.0000   1.0000   1.0000   1.0000   1.0000   1.0000   1.0000
     1.0000   1.0000   1.0000   1.0000   1.0000   1.0000   1.0000   1.0000
     1.0000   1.0000   1.0000   1.0000   1.0000   1.0000   1.0000   1.0000
     1.0000   1.0000   1.0000   1.0000   1.0000   1.0000   1.0000   1.0000
     1.0000   1.0000  -0.0023   0.0000   0.0000   0.0000   0.0000   0.0000
     0.0000   0.0000   0.0000   0.0000   0.0000   0.0000   0.0000

          k = 0.4000 0.4000 0.4042 ( 18136 PWs)   bands (ev):

   -29.3215 -29.3187 -29.3187 -29.3160 -10.7025 -10.7008 -10.6992 -10.6396
   -10.6244 -10.5430 -10.5413 -10.5158 -10.3178 -10.3013 -10.3012 -10.2826
    -7.9769  -7.8067  -7.8056  -7.6517  -7.3802  -7.3788  -7.3312  -7.3087
     3.3553   3.3734   3.5776   3.7180   4.0362   4.0909   4.1425   4.3977
     4.5619   4.8171   4.8295   4.8844   5.0209   5.0259   5.0638   5.0735
     5.2512   5.2900   5.3820   5.3961   5.5825   5.5844   5.7914   5.7957
     7.1904   7.2060   7.2196   7.3988   7.4702   7.6327   7.7236   7.7493
     7.7953   7.8343   7.9039   7.9274   8.1116   8.2726   8.2837   8.3611
     9.2274   9.2794  10.4329  10.7429  13.1678  13.6995  13.7090  14.0095
    15.1278  15.1965  15.1999  15.2552  15.5776  15.7479  15.7514

     occupation numbers 
     1.0000   1.0000   1.0000   1.0000   1.0000   1.0000   1.0000   1.0000
     1.0000   1.0000   1.0000   1.0000   1.0000   1.0000   1.0000   1.0000
     1.0000   1.0000   1.0000   1.0000   1.0000   1.0000   1.0000   1.0000
     1.0000   1.0000   1.0000   1.0000   1.0000   1.0000   1.0000   1.0000
     1.0000   1.0000   1.0000   1.0000   1.0000   1.0000   1.0000   1.0000
     1.0000   1.0000   1.0000   1.0000   1.0000   1.0000   1.0000   1.0000
     1.0000   1.0000   1.0000   1.0000   1.0000   1.0000   1.0000   1.0000
     1.0000   1.0000   1.0000   1.0000   1.0000   1.0000   1.0000   1.0000
     1.0000   1.0000  -0.0012   0.0000   0.0000   0.0000   0.0000   0.0000
     0.0000   0.0000   0.0000   0.0000   0.0000   0.0000   0.0000

          k = 0.4000 0.4000 0.6063 ( 18168 PWs)   bands (ev):

   -29.3043 -29.3017 -29.3017 -29.2991 -10.7197 -10.6960 -10.6956 -10.6759
   -10.5562 -10.5177 -10.5158 -10.4573 -10.4176 -10.3989 -10.3985 -10.3955
    -7.8498  -7.7429  -7.7426  -7.6420  -7.4127  -7.4053  -7.3654  -7.3574
     3.3842   3.4634   3.5857   3.7710   4.0688   4.1132   4.1960   4.4122
     4.5939   4.8212   4.8310   4.8333   4.8664   4.8764   4.9155   4.9407
     5.0483   5.1476   5.2440   5.2596   5.8108   5.8259   6.0283   6.0305
     6.9797   7.1371   7.1396   7.3428   7.4025   7.5149   7.6386   7.6847
     7.7377   7.7447   7.7557   7.8278   7.8930   8.0863   8.1230   8.2703
     9.2463   9.3146  10.4694  10.7681  13.5297  13.6216  13.7480  13.7642
    15.3257  15.3293  15.4114  15.4487  15.8762  16.0479  16.0517

     occupation numbers 
     1.0000   1.0000   1.0000   1.0000   1.0000   1.0000   1.0000   1.0000
     1.0000   1.0000   1.0000   1.0000   1.0000   1.0000   1.0000   1.0000
     1.0000   1.0000   1.0000   1.0000   1.0000   1.0000   1.0000   1.0000
     1.0000   1.0000   1.0000   1.0000   1.0000   1.0000   1.0000   1.0000
     1.0000   1.0000   1.0000   1.0000   1.0000   1.0000   1.0000   1.0000
     1.0000   1.0000   1.0000   1.0000   1.0000   1.0000   1.0000   1.0000
     1.0000   1.0000   1.0000   1.0000   1.0000   1.0000   1.0000   1.0000
     1.0000   1.0000   1.0000   1.0000   1.0000   1.0000   1.0000   1.0000
     1.0000   0.9988  -0.0004   0.0000   0.0000   0.0000   0.0000   0.0000
     0.0000   0.0000   0.0000   0.0000   0.0000   0.0000   0.0000

          k = 0.4000 0.4000 0.8084 ( 18171 PWs)   bands (ev):

   -29.2870 -29.2846 -29.2846 -29.2821 -10.8877 -10.8163 -10.8163 -10.7528
   -10.4680 -10.4621 -10.4607 -10.4347 -10.3970 -10.3802 -10.3796 -10.3779
    -7.7432  -7.7127  -7.7078  -7.6452  -7.4592  -7.4329  -7.3904  -7.3861
     3.4106   3.5512   3.5939   3.8240   4.1017   4.1353   4.2522   4.4244
     4.5753   4.6489   4.6844   4.6853   4.7909   4.8161   4.8425   4.8902
     4.9216   5.0135   5.1048   5.1201   6.0664   6.1312   6.2851   6.3211
     6.8329   7.0197   7.0454   7.2434   7.3395   7.4462   7.5294   7.5808
     7.6401   7.7065   7.7140   7.7429   7.7975   7.9078   7.9550   8.1515
     9.2651   9.3515  10.5073  10.7926  13.0014  13.4358  13.4819  13.6672
    15.6027  15.7142  15.7190  15.9035  16.4029  16.4088  16.4215

     occupation numbers 
     1.0000   1.0000   1.0000   1.0000   1.0000   1.0000   1.0000   1.0000
     1.0000   1.0000   1.0000   1.0000   1.0000   1.0000   1.0000   1.0000
     1.0000   1.0000   1.0000   1.0000   1.0000   1.0000   1.0000   1.0000
     1.0000   1.0000   1.0000   1.0000   1.0000   1.0000   1.0000   1.0000
     1.0000   1.0000   1.0000   1.0000   1.0000   1.0000   1.0000   1.0000
     1.0000   1.0000   1.0000   1.0000   1.0000   1.0000   1.0000   1.0000
     1.0000   1.0000   1.0000   1.0000   1.0000   1.0000   1.0000   1.0000
     1.0000   1.0000   1.0000   1.0000   1.0000   1.0000   1.0000   1.0000
     1.0000   0.8906  -0.0001   0.0000   0.0000   0.0000   0.0000   0.0000
     0.0000   0.0000   0.0000   0.0000   0.0000   0.0000   0.0000

          k = 0.4000 0.4000 1.0105 ( 18163 PWs)   bands (ev):

   -29.2743 -29.2720 -29.2720 -29.2696 -11.0179 -10.9332 -10.9331 -10.8546
   -10.4015 -10.4007 -10.3999 -10.3933 -10.3516 -10.3470 -10.3454 -10.3449
    -7.7144  -7.7036  -7.6748  -7.6550  -7.5102  -7.4353  -7.4009  -7.3988
     3.4291   3.5999   3.6166   3.8683   4.1368   4.1652   4.3026   4.4329
     4.4332   4.4913   4.5251   4.6269   4.6891   4.7004   4.8399   4.8734
     4.9140   4.9766   5.0019   5.0168   6.2466   6.4359   6.4852   6.5676
     6.8328   6.8738   6.9879   7.2045   7.2135   7.4011   7.4420   7.4625
     7.6217   7.6243   7.6926   7.7007   7.8007   7.8139   7.8288   8.0435
     9.2796   9.3816  10.5375  10.8101  12.4825  13.0817  13.1504  13.6059
    15.9683  16.1483  16.1494  16.2125  16.5834  16.5874  16.6155

     occupation numbers 
     1.0000   1.0000   1.0000   1.0000   1.0000   1.0000   1.0000   1.0000
     1.0000   1.0000   1.0000   1.0000   1.0000   1.0000   1.0000   1.0000
     1.0000   1.0000   1.0000   1.0000   1.0000   1.0000   1.0000   1.0000
     1.0000   1.0000   1.0000   1.0000   1.0000   1.0000   1.0000   1.0000
     1.0000   1.0000   1.0000   1.0000   1.0000   1.0000   1.0000   1.0000
     1.0000   1.0000   1.0000   1.0000   1.0000   1.0000   1.0000   1.0000
     1.0000   1.0000   1.0000   1.0000   1.0000   1.0000   1.0000   1.0000
     1.0000   1.0000   1.0000   1.0000   1.0000   1.0000   1.0000   1.0000
     1.0000   0.7208   0.0000   0.0000   0.0000   0.0000   0.0000   0.0000
     0.0000   0.0000   0.0000   0.0000   0.0000   0.0000   0.0000

          k = 0.4000 0.4000-1.2126 ( 18148 PWs)   bands (ev):

   -29.2696 -29.2674 -29.2674 -29.2650 -11.0652 -10.9770 -10.9769 -10.8947
   -10.3773 -10.3767 -10.3742 -10.3735 -10.3347 -10.3341 -10.3312 -10.3307
    -7.7201  -7.7068  -7.6604  -7.6512  -7.5303  -7.4335  -7.4061  -7.3994
     3.4358   3.6022   3.6414   3.8877   4.1604   4.1870   4.3352   4.3622
     4.4137   4.4403   4.4572   4.5492   4.6653   4.6986   4.8403   4.8412
     4.9231   4.9639   4.9787   4.9794   6.3029   6.5566   6.6272   6.6768
     6.6973   6.9751   7.0016   7.0540   7.2158   7.3095   7.4440   7.4863
     7.5314   7.6153   7.6847   7.6983   7.7837   7.7977   7.8043   7.9973
     9.2852   9.3936  10.5496  10.8165  12.2798  12.9339  13.0115  13.5544
    16.2050  16.3231  16.4385  16.4464  16.5147  16.5238  16.7904

     occupation numbers 
     1.0000   1.0000   1.0000   1.0000   1.0000   1.0000   1.0000   1.0000
     1.0000   1.0000   1.0000   1.0000   1.0000   1.0000   1.0000   1.0000
     1.0000   1.0000   1.0000   1.0000   1.0000   1.0000   1.0000   1.0000
     1.0000   1.0000   1.0000   1.0000   1.0000   1.0000   1.0000   1.0000
     1.0000   1.0000   1.0000   1.0000   1.0000   1.0000   1.0000   1.0000
     1.0000   1.0000   1.0000   1.0000   1.0000   1.0000   1.0000   1.0000
     1.0000   1.0000   1.0000   1.0000   1.0000   1.0000   1.0000   1.0000
     1.0000   1.0000   1.0000   1.0000   1.0000   1.0000   1.0000   1.0000
     1.0000   0.6776   0.0000   0.0000   0.0000   0.0000   0.0000   0.0000
     0.0000   0.0000   0.0000   0.0000   0.0000   0.0000   0.0000

     the Fermi energy is     9.4214 ev

!    total energy              =   -1486.13242200 Ry
     estimated scf accuracy    <          2.3E-09 Ry

     The total energy is the sum of the following terms:
     one-electron contribution =    -285.33748739 Ry
     hartree contribution      =     257.41577344 Ry
     xc contribution           =    -286.42108723 Ry
     ewald contribution        =    -736.44377802 Ry
     Hubbard energy            =       0.19430880 Ry
     one-center paw contrib.   =    -435.54015160 Ry
      -> PAW hartree energy AE =       0.00000000 Ry
      -> PAW hartree energy PS =       0.00000000 Ry
      -> PAW xc energy AE      =       0.00000000 Ry
      -> PAW xc energy PS      =       0.00000000 Ry
      -> total E_H with PAW    =     257.41577344 Ry
      -> total E_XC with PAW   =    -286.42108723 Ry

     total magnetization       =    -0.00 Bohr mag/cell
     absolute magnetization    =     2.36 Bohr mag/cell

     convergence has been achieved in  18 iterations

     Writing all to output data dir out/CaCuO2.save/ :
     XML data file, charge density, pseudopotentials, collected wavefunctions

     init_run     :      6.48s CPU      6.73s WALL (       1 calls)
     electrons    :    172.57s CPU    175.83s WALL (       1 calls)

     Called by init_run:
     wfcinit      :      4.24s CPU      4.32s WALL (       1 calls)
     wfcinit:atom :      0.03s CPU      0.03s WALL (       6 calls)
     wfcinit:wfcr :      2.79s CPU      2.86s WALL (       6 calls)
     potinit      :      1.10s CPU      1.20s WALL (       1 calls)
     hinit0       :      0.80s CPU      0.82s WALL (       1 calls)

     Called by electrons:
     c_bands      :    128.89s CPU    130.45s WALL (      18 calls)
     sum_band     :     24.56s CPU     25.17s WALL (      18 calls)
     v_of_rho     :     10.54s CPU     11.12s WALL (      19 calls)
     v_h          :      0.32s CPU      0.34s WALL (      19 calls)
     v_xc         :     10.22s CPU     10.77s WALL (      19 calls)
     newd         :      2.89s CPU      2.92s WALL (      19 calls)
     PAW_pot      :      4.48s CPU      4.49s WALL (      19 calls)
     mix_rho      :      0.70s CPU      0.72s WALL (      18 calls)

     Called by c_bands:
     init_us_2    :      4.43s CPU      4.46s WALL (     228 calls)
     cegterg      :    105.77s CPU    107.20s WALL (     108 calls)

     Called by sum_band:
     sum_band:wei :      0.66s CPU      0.72s WALL (      18 calls)
     sum_band:loo :     15.33s CPU     15.64s WALL (      18 calls)
     sum_band:buf :      0.25s CPU      0.25s WALL (     108 calls)
     sum_band:ini :      1.54s CPU      1.54s WALL (     108 calls)
     sum_band:cal :      3.41s CPU      3.43s WALL (     108 calls)
     sum_band:bec :      0.02s CPU      0.02s WALL (     108 calls)
     addusdens    :      5.62s CPU      5.68s WALL (      18 calls)
                                        0.00s GPU  (      18 calls)
     addusd:skk   :      0.01s CPU      0.01s WALL (      72 calls)
                                        0.00s GPU  (      72 calls)

     Called by *egterg:
     cdiaghg      :      3.53s CPU      3.53s WALL (     459 calls)
     cegterg:over :      7.27s CPU      7.28s WALL (     351 calls)
     cegterg:upda :      4.29s CPU      4.31s WALL (     351 calls)
     cegterg:last :     10.15s CPU     10.16s WALL (     212 calls)
     h_psi        :     69.16s CPU     70.46s WALL (     465 calls)
     s_psi        :      9.25s CPU      9.27s WALL (     471 calls)
     g_psi        :      0.71s CPU      0.71s WALL (     351 calls)

     Called by h_psi:
     h_psi:calbec :      8.74s CPU      8.79s WALL (     465 calls)
     vloc_psi     :     48.52s CPU     49.57s WALL (     465 calls)
                                        0.00s GPU  (     465 calls)
     add_vuspsi   :      8.92s CPU      8.96s WALL (     465 calls)
     vhpsi        :      2.14s CPU      2.16s WALL (     465 calls)

     General routines
     calbec       :     13.88s CPU     13.98s WALL (    1152 calls)
     fft          :      4.95s CPU      5.26s WALL (     469 calls)
     ffts         :      0.34s CPU      0.35s WALL (      74 calls)
     fftw         :     51.50s CPU     52.66s WALL (   49804 calls)
     interpolate  :      0.86s CPU      0.89s WALL (      38 calls)

     Parallel routines

     Hubbard U routines
     new_ns       :      1.15s CPU      1.15s WALL (      18 calls)
     vhpsi        :      2.14s CPU      2.16s WALL (     465 calls)

     PAW routines
     PAW_pot      :      4.48s CPU      4.49s WALL (      19 calls)
     PAW_symme    :      0.03s CPU      0.03s WALL (      37 calls)

     PWSCF        :   2m59.67s CPU   3m20.79s WALL


   This run was terminated on:  19:41:26  16Jun2026            

=------------------------------------------------------------------------------=
   JOB DONE.
=------------------------------------------------------------------------------=
