
     Program PWSCF v.7.2 starts on 27Nov2024 at 10:21: 4 

     This program is part of the open-source Quantum ESPRESSO suite
     for quantum simulation of materials; please cite
         "P. Giannozzi et al., J. Phys.:Condens. Matter 21 395502 (2009);
         "P. Giannozzi et al., J. Phys.:Condens. Matter 29 465901 (2017);
         "P. Giannozzi et al., J. Chem. Phys. 152 154105 (2020);
          URL http://www.quantum-espresso.org", 
     in publications or presentations arising from this work. More details at
     http://www.quantum-espresso.org/quote

     Parallel version (MPI), running on   128 processors

     MPI processes distributed on     4 nodes
     60759 MiB available memory on the printing compute node when the environment starts
 
     Waiting for input...
     Reading input from standard input
     Message from routine read_cards :
     DEPRECATED: no units specified in CELL_PARAMETERS card

     Current dimensions of program PWSCF are:
     Max number of different atomic species (ntypx) = 10
     Max number of k-points (npk) =  40000
     Max angular momentum in pseudopotentials (lmaxx) =  4
     file Cu.pbe-dn-rrkjus_psl.1.0.0.UPF: wavefunction(s)  3D renormalized
     file Cu.pbe-dn-rrkjus_psl.1.0.0.UPF: wavefunction(s)  3D renormalized
     file Cu.pbe-dn-rrkjus_psl.1.0.0.UPF: wavefunction(s)  3D renormalized
     file Cu.pbe-dn-rrkjus_psl.1.0.0.UPF: wavefunction(s)  3D renormalized
     file K.pbe-spn-rrkjus_psl.1.0.0.UPF: wavefunction(s)  3S renormalized
     file F.pbe-n-rrkjus_psl.1.0.0.UPF: wavefunction(s)  2S renormalized
     Message from routine setup:
     using ibrav=0 with symmetry is DISCOURAGED, use correct ibrav instead
 
     K-points division:     npool     =       8
     R & G space division:  proc/nbgrp/npool/nimage =      16
     Subspace diagonalization in iterative solution of the eigenvalue problem:
     a serial algorithm will be used

 
     Parallelization info
     --------------------
     sticks:   dense  smooth     PW     G-vecs:    dense   smooth      PW
     Min         243     121     34                15323     5415     790
     Max         244     122     35                15328     5420     793
     Sum        3893    1941    545               245195    86663   12651
 
     Using Slab Decomposition
 


     bravais-lattice index     =            0
     lattice parameter (alat)  =      11.0644  a.u.
     unit-cell volume          =    1815.1300 (a.u.)^3
     number of atoms/cell      =           20
     number of atomic types    =            6
     number of electrons       =       164.00
     number of Kohn-Sham states=           98
     kinetic-energy cutoff     =      50.0000  Ry
     charge density cutoff     =     400.0000  Ry
     scf convergence threshold =      1.0E-06
     mixing beta               =       0.7000
     number of iterations used =            8  plain     mixing
     Exchange-correlation= PBE
                           (   1   4   3   4   0   0   0)
     Hubbard projectors: ortho-atomic
     Hubbard parameters of DFT+U (Dudarev formulation) in eV:
     U(Cu1-3d) =  6.6000
     U(Cu2-3d) =  6.6000
     U(Cu3-3d) =  6.6000
     U(Cu4-3d) =  6.6000

     Internal variables: lda_plus_u = T, lda_plus_u_kind = 0

     celldm(1)=  11.064351  celldm(2)=   0.000000  celldm(3)=   0.000000
     celldm(4)=   0.000000  celldm(5)=   0.000000  celldm(6)=   0.000000

     crystal axes: (cart. coord. in units of alat)
               a(1) = (   1.000000   0.000000   0.000000 )  
               a(2) = (   0.000000   1.000000   0.000000 )  
               a(3) = (   0.000000   0.000000   1.340078 )  

     reciprocal axes: (cart. coord. in units 2 pi/alat)
               b(1) = (  1.000000  0.000000  0.000000 )  
               b(2) = (  0.000000  1.000000  0.000000 )  
               b(3) = (  0.000000  0.000000  0.746225 )  


     PseudoPot. # 1 for Cu read from file:
     /home1/theory/dkorotin/pseudo/Cu.pbe-dn-rrkjus_psl.1.0.0.UPF
     MD5 check sum: 97fcad320fbfe4143ced397f25a1edcf
     Pseudo is Ultrasoft + core correction, Zval = 11.0
     Generated using "atomic" code by A. Dal Corso  v.5.1
     Using radial grid of 1199 points,  6 beta functions with: 
                l(1) =   0
                l(2) =   0
                l(3) =   1
                l(4) =   1
                l(5) =   2
                l(6) =   2
     Q(r) pseudized with 0 coefficients 


     PseudoPot. # 2 for Cu read from file:
     /home1/theory/dkorotin/pseudo/Cu.pbe-dn-rrkjus_psl.1.0.0.UPF
     MD5 check sum: 97fcad320fbfe4143ced397f25a1edcf
     Pseudo is Ultrasoft + core correction, Zval = 11.0
     Generated using "atomic" code by A. Dal Corso  v.5.1
     Using radial grid of 1199 points,  6 beta functions with: 
                l(1) =   0
                l(2) =   0
                l(3) =   1
                l(4) =   1
                l(5) =   2
                l(6) =   2
     Q(r) pseudized with 0 coefficients 


     PseudoPot. # 3 for Cu read from file:
     /home1/theory/dkorotin/pseudo/Cu.pbe-dn-rrkjus_psl.1.0.0.UPF
     MD5 check sum: 97fcad320fbfe4143ced397f25a1edcf
     Pseudo is Ultrasoft + core correction, Zval = 11.0
     Generated using "atomic" code by A. Dal Corso  v.5.1
     Using radial grid of 1199 points,  6 beta functions with: 
                l(1) =   0
                l(2) =   0
                l(3) =   1
                l(4) =   1
                l(5) =   2
                l(6) =   2
     Q(r) pseudized with 0 coefficients 


     PseudoPot. # 4 for Cu read from file:
     /home1/theory/dkorotin/pseudo/Cu.pbe-dn-rrkjus_psl.1.0.0.UPF
     MD5 check sum: 97fcad320fbfe4143ced397f25a1edcf
     Pseudo is Ultrasoft + core correction, Zval = 11.0
     Generated using "atomic" code by A. Dal Corso  v.5.1
     Using radial grid of 1199 points,  6 beta functions with: 
                l(1) =   0
                l(2) =   0
                l(3) =   1
                l(4) =   1
                l(5) =   2
                l(6) =   2
     Q(r) pseudized with 0 coefficients 


     PseudoPot. # 5 for K  read from file:
     /home1/theory/dkorotin/pseudo/K.pbe-spn-rrkjus_psl.1.0.0.UPF
     MD5 check sum: a2c4f0c8cb6f9cc3e8ba421c9cc5fd49
     Pseudo is Ultrasoft + core correction, Zval =  9.0
     Generated using "atomic" code by A. Dal Corso  v.5.1
     Using radial grid of 1165 points,  6 beta functions with: 
                l(1) =   0
                l(2) =   0
                l(3) =   1
                l(4) =   1
                l(5) =   2
                l(6) =   2
     Q(r) pseudized with 0 coefficients 


     PseudoPot. # 6 for F  read from file:
     /home1/theory/dkorotin/pseudo/F.pbe-n-rrkjus_psl.1.0.0.UPF
     MD5 check sum: e696a6e8be2f417da33e79f7582ff109
     Pseudo is Ultrasoft + core correction, Zval =  7.0
     Generated using "atomic" code by A. Dal Corso  v.5.1
     Using radial grid of 1105 points,  4 beta functions with: 
                l(1) =   0
                l(2) =   0
                l(3) =   1
                l(4) =   1
     Q(r) pseudized with 0 coefficients 


     atomic species   valence    mass     pseudopotential
        Cu1           11.00    64.00000     Cu( 1.00)
        Cu2           11.00    64.00000     Cu( 1.00)
        Cu3           11.00    64.00000     Cu( 1.00)
        Cu4           11.00    64.00000     Cu( 1.00)
        K              9.00    39.00000     K ( 1.00)
        F              7.00    19.00000     F ( 1.00)

     Starting magnetic structure 
     atomic species   magnetization
        Cu1          1.000
        Cu2          1.000
        Cu3         -1.000
        Cu4         -1.000
        K            0.000
        F            0.000

      8 Sym. Ops., with inversion, found ( 4 have fractional translation)


                                    s                        frac. trans.

      isym =  1     identity                                     

 cryst.   s( 1) = (     1          0          0      )
                  (     0          1          0      )
                  (     0          0          1      )

 cart.    s( 1) = (  1.0000000  0.0000000  0.0000000 )
                  (  0.0000000  1.0000000  0.0000000 )
                  (  0.0000000  0.0000000  1.0000000 )


      isym =  2     180 deg rotation - cart. axis [0,0,1]        

 cryst.   s( 2) = (    -1          0          0      )
                  (     0         -1          0      )
                  (     0          0          1      )

 cart.    s( 2) = ( -1.0000000  0.0000000  0.0000000 )
                  (  0.0000000 -1.0000000  0.0000000 )
                  (  0.0000000  0.0000000  1.0000000 )


      isym =  3     180 deg rotation - cart. axis [1,1,0]        

 cryst.   s( 3) = (     0          1          0      )    f =(  0.5000000 )
                  (     1          0          0      )       ( -0.5000000 )
                  (     0          0         -1      )       (  0.0000000 )

 cart.    s( 3) = (  0.0000000  1.0000000  0.0000000 )    f =(  0.5000000 )
                  (  1.0000000  0.0000000  0.0000000 )       ( -0.5000000 )
                  (  0.0000000  0.0000000 -1.0000000 )       (  0.0000000 )


      isym =  4     180 deg rotation - cart. axis [1,-1,0]       

 cryst.   s( 4) = (     0         -1          0      )    f =(  0.5000000 )
                  (    -1          0          0      )       (  0.5000000 )
                  (     0          0         -1      )       (  0.0000000 )

 cart.    s( 4) = (  0.0000000 -1.0000000  0.0000000 )    f =(  0.5000000 )
                  ( -1.0000000  0.0000000  0.0000000 )       (  0.5000000 )
                  (  0.0000000  0.0000000 -1.0000000 )       (  0.0000000 )


      isym =  5     inversion                                    

 cryst.   s( 5) = (    -1          0          0      )
                  (     0         -1          0      )
                  (     0          0         -1      )

 cart.    s( 5) = ( -1.0000000  0.0000000  0.0000000 )
                  (  0.0000000 -1.0000000  0.0000000 )
                  (  0.0000000  0.0000000 -1.0000000 )


      isym =  6     inv. 180 deg rotation - cart. axis [0,0,1]   

 cryst.   s( 6) = (     1          0          0      )
                  (     0          1          0      )
                  (     0          0         -1      )

 cart.    s( 6) = (  1.0000000  0.0000000  0.0000000 )
                  (  0.0000000  1.0000000  0.0000000 )
                  (  0.0000000  0.0000000 -1.0000000 )


      isym =  7     inv. 180 deg rotation - cart. axis [1,1,0]   

 cryst.   s( 7) = (     0         -1          0      )    f =(  0.5000000 )
                  (    -1          0          0      )       (  0.5000000 )
                  (     0          0          1      )       (  0.0000000 )

 cart.    s( 7) = (  0.0000000 -1.0000000  0.0000000 )    f =(  0.5000000 )
                  ( -1.0000000  0.0000000  0.0000000 )       (  0.5000000 )
                  (  0.0000000  0.0000000  1.0000000 )       (  0.0000000 )


      isym =  8     inv. 180 deg rotation - cart. axis [1,-1,0]  

 cryst.   s( 8) = (     0          1          0      )    f =(  0.5000000 )
                  (     1          0          0      )       ( -0.5000000 )
                  (     0          0          1      )       (  0.0000000 )

 cart.    s( 8) = (  0.0000000  1.0000000  0.0000000 )    f =(  0.5000000 )
                  (  1.0000000  0.0000000  0.0000000 )       ( -0.5000000 )
                  (  0.0000000  0.0000000  1.0000000 )       (  0.0000000 )


   Cartesian axes

     site n.     atom                  positions (alat units)
         1           Cu1 tau(   1) = (   0.5000000   0.0000000   0.0000000  )
         2           Cu2 tau(   2) = (   0.0000000   0.5000000   0.0000000  )
         3           Cu3 tau(   3) = (   0.5000000   0.0000000   0.6700388  )
         4           Cu4 tau(   4) = (   0.0000000   0.5000000   0.6700388  )
         5           K   tau(   5) = (   0.0000000   0.0000000   0.3350194  )
         6           K   tau(   6) = (   0.0000000   0.0000000  -0.3350194  )
         7           K   tau(   7) = (   0.5000000   0.5000000   0.3350194  )
         8           K   tau(   8) = (   0.5000000   0.5000000  -0.3350194  )
         9           F   tau(   9) = (   0.5000000   0.0000000   0.3350194  )
        10           F   tau(  10) = (   0.5000000   0.0000000  -0.3350194  )
        11           F   tau(  11) = (   0.2719700   0.2280300   0.0000000  )
        12           F   tau(  12) = (  -0.2719700  -0.2280300   0.0000000  )
        13           F   tau(  13) = (   0.2719700  -0.2280300   0.6700388  )
        14           F   tau(  14) = (  -0.2719700   0.2280300   0.6700388  )
        15           F   tau(  15) = (   0.0000000   0.5000000   0.3350194  )
        16           F   tau(  16) = (   0.0000000   0.5000000  -0.3350194  )
        17           F   tau(  17) = (   0.2280300  -0.2719700   0.0000000  )
        18           F   tau(  18) = (  -0.2280300   0.2719700   0.0000000  )
        19           F   tau(  19) = (   0.2280300   0.2719700   0.6700388  )
        20           F   tau(  20) = (  -0.2280300  -0.2719700   0.6700388  )

   Crystallographic axes

     site n.     atom                  positions (cryst. coord.)
         1           Cu1 tau(   1) = (  0.5000000  0.0000000  0.0000000  )
         2           Cu2 tau(   2) = (  0.0000000  0.5000000  0.0000000  )
         3           Cu3 tau(   3) = (  0.5000000  0.0000000  0.5000000  )
         4           Cu4 tau(   4) = (  0.0000000  0.5000000  0.5000000  )
         5           K   tau(   5) = (  0.0000000  0.0000000  0.2500000  )
         6           K   tau(   6) = (  0.0000000  0.0000000 -0.2500000  )
         7           K   tau(   7) = (  0.5000000  0.5000000  0.2500000  )
         8           K   tau(   8) = (  0.5000000  0.5000000 -0.2500000  )
         9           F   tau(   9) = (  0.5000000  0.0000000  0.2500000  )
        10           F   tau(  10) = (  0.5000000  0.0000000 -0.2500000  )
        11           F   tau(  11) = (  0.2719700  0.2280300  0.0000000  )
        12           F   tau(  12) = ( -0.2719700 -0.2280300  0.0000000  )
        13           F   tau(  13) = (  0.2719700 -0.2280300  0.5000000  )
        14           F   tau(  14) = ( -0.2719700  0.2280300  0.5000000  )
        15           F   tau(  15) = (  0.0000000  0.5000000  0.2500000  )
        16           F   tau(  16) = (  0.0000000  0.5000000 -0.2500000  )
        17           F   tau(  17) = (  0.2280300 -0.2719700  0.0000000  )
        18           F   tau(  18) = ( -0.2280300  0.2719700  0.0000000  )
        19           F   tau(  19) = (  0.2280300  0.2719700  0.5000000  )
        20           F   tau(  20) = ( -0.2280300 -0.2719700  0.5000000  )

     number of k points=    36 (tetrahedron method)
                       cart. coord. in units 2pi/alat
        k(    1) = (   0.0833333   0.0833333   0.0621855), wk =   0.0185185
        k(    2) = (   0.0833333   0.0833333   0.1865564), wk =   0.0185185
        k(    3) = (   0.0833333   0.0833333   0.3109273), wk =   0.0185185
        k(    4) = (   0.0833333   0.2500000   0.0621855), wk =   0.0370370
        k(    5) = (   0.0833333   0.2500000   0.1865564), wk =   0.0370370
        k(    6) = (   0.0833333   0.2500000   0.3109273), wk =   0.0370370
        k(    7) = (   0.0833333   0.4166667   0.0621855), wk =   0.0370370
        k(    8) = (   0.0833333   0.4166667   0.1865564), wk =   0.0370370
        k(    9) = (   0.0833333   0.4166667   0.3109273), wk =   0.0370370
        k(   10) = (   0.2500000   0.2500000   0.0621855), wk =   0.0185185
        k(   11) = (   0.2500000   0.2500000   0.1865564), wk =   0.0185185
        k(   12) = (   0.2500000   0.2500000   0.3109273), wk =   0.0185185
        k(   13) = (   0.2500000   0.4166667   0.0621855), wk =   0.0370370
        k(   14) = (   0.2500000   0.4166667   0.1865564), wk =   0.0370370
        k(   15) = (   0.2500000   0.4166667   0.3109273), wk =   0.0370370
        k(   16) = (   0.4166667   0.4166667   0.0621855), wk =   0.0185185
        k(   17) = (   0.4166667   0.4166667   0.1865564), wk =   0.0185185
        k(   18) = (   0.4166667   0.4166667   0.3109273), wk =   0.0185185
        k(   19) = (  -0.0833333   0.0833333  -0.0621855), wk =   0.0185185
        k(   20) = (  -0.0833333   0.0833333  -0.1865564), wk =   0.0185185
        k(   21) = (  -0.0833333   0.0833333  -0.3109273), wk =   0.0185185
        k(   22) = (  -0.0833333   0.2500000  -0.0621855), wk =   0.0370370
        k(   23) = (  -0.0833333   0.2500000  -0.1865564), wk =   0.0370370
        k(   24) = (  -0.0833333   0.2500000  -0.3109273), wk =   0.0370370
        k(   25) = (  -0.0833333   0.4166667  -0.0621855), wk =   0.0370370
        k(   26) = (  -0.0833333   0.4166667  -0.1865564), wk =   0.0370370
        k(   27) = (  -0.0833333   0.4166667  -0.3109273), wk =   0.0370370
        k(   28) = (  -0.2500000   0.2500000  -0.0621855), wk =   0.0185185
        k(   29) = (  -0.2500000   0.2500000  -0.1865564), wk =   0.0185185
        k(   30) = (  -0.2500000   0.2500000  -0.3109273), wk =   0.0185185
        k(   31) = (  -0.2500000   0.4166667  -0.0621855), wk =   0.0370370
        k(   32) = (  -0.2500000   0.4166667  -0.1865564), wk =   0.0370370
        k(   33) = (  -0.2500000   0.4166667  -0.3109273), wk =   0.0370370
        k(   34) = (  -0.4166667   0.4166667  -0.0621855), wk =   0.0185185
        k(   35) = (  -0.4166667   0.4166667  -0.1865564), wk =   0.0185185
        k(   36) = (  -0.4166667   0.4166667  -0.3109273), wk =   0.0185185

                       cryst. coord.
        k(    1) = (   0.0833333   0.0833333   0.0833333), wk =   0.0185185
        k(    2) = (   0.0833333   0.0833333   0.2500000), wk =   0.0185185
        k(    3) = (   0.0833333   0.0833333   0.4166667), wk =   0.0185185
        k(    4) = (   0.0833333   0.2500000   0.0833333), wk =   0.0370370
        k(    5) = (   0.0833333   0.2500000   0.2500000), wk =   0.0370370
        k(    6) = (   0.0833333   0.2500000   0.4166667), wk =   0.0370370
        k(    7) = (   0.0833333   0.4166667   0.0833333), wk =   0.0370370
        k(    8) = (   0.0833333   0.4166667   0.2500000), wk =   0.0370370
        k(    9) = (   0.0833333   0.4166667   0.4166667), wk =   0.0370370
        k(   10) = (   0.2500000   0.2500000   0.0833333), wk =   0.0185185
        k(   11) = (   0.2500000   0.2500000   0.2500000), wk =   0.0185185
        k(   12) = (   0.2500000   0.2500000   0.4166667), wk =   0.0185185
        k(   13) = (   0.2500000   0.4166667   0.0833333), wk =   0.0370370
        k(   14) = (   0.2500000   0.4166667   0.2500000), wk =   0.0370370
        k(   15) = (   0.2500000   0.4166667   0.4166667), wk =   0.0370370
        k(   16) = (   0.4166667   0.4166667   0.0833333), wk =   0.0185185
        k(   17) = (   0.4166667   0.4166667   0.2500000), wk =   0.0185185
        k(   18) = (   0.4166667   0.4166667   0.4166667), wk =   0.0185185
        k(   19) = (  -0.0833333   0.0833333  -0.0833333), wk =   0.0185185
        k(   20) = (  -0.0833333   0.0833333  -0.2500000), wk =   0.0185185
        k(   21) = (  -0.0833333   0.0833333  -0.4166667), wk =   0.0185185
        k(   22) = (  -0.0833333   0.2500000  -0.0833333), wk =   0.0370370
        k(   23) = (  -0.0833333   0.2500000  -0.2500000), wk =   0.0370370
        k(   24) = (  -0.0833333   0.2500000  -0.4166667), wk =   0.0370370
        k(   25) = (  -0.0833333   0.4166667  -0.0833333), wk =   0.0370370
        k(   26) = (  -0.0833333   0.4166667  -0.2500000), wk =   0.0370370
        k(   27) = (  -0.0833333   0.4166667  -0.4166667), wk =   0.0370370
        k(   28) = (  -0.2500000   0.2500000  -0.0833333), wk =   0.0185185
        k(   29) = (  -0.2500000   0.2500000  -0.2500000), wk =   0.0185185
        k(   30) = (  -0.2500000   0.2500000  -0.4166667), wk =   0.0185185
        k(   31) = (  -0.2500000   0.4166667  -0.0833333), wk =   0.0370370
        k(   32) = (  -0.2500000   0.4166667  -0.2500000), wk =   0.0370370
        k(   33) = (  -0.2500000   0.4166667  -0.4166667), wk =   0.0370370
        k(   34) = (  -0.4166667   0.4166667  -0.0833333), wk =   0.0185185
        k(   35) = (  -0.4166667   0.4166667  -0.2500000), wk =   0.0185185
        k(   36) = (  -0.4166667   0.4166667  -0.4166667), wk =   0.0185185

     Dense  grid:   245195 G-vectors     FFT dimensions: (  72,  72,  96)

     Smooth grid:    86663 G-vectors     FFT dimensions: (  50,  50,  72)

     Dynamical RAM for                 wfc:       1.01 MB

     Dynamical RAM for     wfc (w. buffer):      10.12 MB

     Dynamical RAM for             U proj.:       0.21 MB

     Dynamical RAM for  U proj. (w. buff.):       2.07 MB

     Dynamical RAM for           str. fact:       1.40 MB

     Dynamical RAM for           local pot:       0.00 MB

     Dynamical RAM for          nlocal pot:       2.48 MB

     Dynamical RAM for                qrad:       9.63 MB

     Dynamical RAM for          rho,v,vnew:       2.83 MB

     Dynamical RAM for               rhoin:       0.94 MB

     Dynamical RAM for            rho*nmix:       7.48 MB

     Dynamical RAM for           G-vectors:       0.92 MB

     Dynamical RAM for          h,s,v(r/c):       1.76 MB

     Dynamical RAM for          <psi|beta>:       0.36 MB

     Dynamical RAM for                 psi:       2.02 MB

     Dynamical RAM for                hpsi:       2.02 MB

     Dynamical RAM for                spsi:       2.02 MB

     Dynamical RAM for      wfcinit/wfcrot:       2.71 MB

     Dynamical RAM for           addusdens:       6.23 MB

     Estimated static dynamical RAM per process >      33.45 MB

     Estimated max dynamical RAM per process >      49.13 MB

     Estimated total dynamical RAM >       5.32 GB

     Check: negative core charge=   -0.000002
     Generating pointlists ...
     new r_m :   0.1330 (alat units)  1.4718 (a.u.) for type    1
     new r_m :   0.1330 (alat units)  1.4718 (a.u.) for type    2
     new r_m :   0.1330 (alat units)  1.4718 (a.u.) for type    3
     new r_m :   0.1330 (alat units)  1.4718 (a.u.) for type    4
     new r_m :   0.2013 (alat units)  2.2275 (a.u.) for type    5
     new r_m :   0.1330 (alat units)  1.4718 (a.u.) for type    6

     Initial potential from superposition of free atoms

     starting charge     163.9237, renormalised to     164.0000

     HUBBARD ENERGY =    0.4366  (Ry)

     STARTING HUBBARD OCCUPATIONS:

     =================== HUBBARD OCCUPATIONS ===================
     ------------------------ ATOM    1 ------------------------
     Tr[ns(  1)] (up, down, total) =   5.00000  4.50000  9.50000
     Atomic magnetic moment for atom   1 =   0.50000
     SPIN  1
     eigenvalues:
       1.000  1.000  1.000  1.000  1.000
     eigenvectors (columns):
       1.000  0.000  0.000  0.000  0.000
       0.000  1.000  0.000  0.000  0.000
       0.000  0.000  1.000  0.000  0.000
       0.000  0.000  0.000  1.000  0.000
       0.000  0.000  0.000  0.000  1.000
     occupation matrix ns (before diag.):
       1.000  0.000  0.000  0.000  0.000
       0.000  1.000  0.000  0.000  0.000
       0.000  0.000  1.000  0.000  0.000
       0.000  0.000  0.000  1.000  0.000
       0.000  0.000  0.000  0.000  1.000
     SPIN  2
     eigenvalues:
       0.900  0.900  0.900  0.900  0.900
     eigenvectors (columns):
       1.000  0.000  0.000  0.000  0.000
       0.000  1.000  0.000  0.000  0.000
       0.000  0.000  1.000  0.000  0.000
       0.000  0.000  0.000  1.000  0.000
       0.000  0.000  0.000  0.000  1.000
     occupation matrix ns (before diag.):
       0.900  0.000  0.000  0.000  0.000
       0.000  0.900  0.000  0.000  0.000
       0.000  0.000  0.900  0.000  0.000
       0.000  0.000  0.000  0.900  0.000
       0.000  0.000  0.000  0.000  0.900
     ------------------------ ATOM    2 ------------------------
     Tr[ns(  2)] (up, down, total) =   5.00000  4.50000  9.50000
     Atomic magnetic moment for atom   2 =   0.50000
     SPIN  1
     eigenvalues:
       1.000  1.000  1.000  1.000  1.000
     eigenvectors (columns):
       1.000  0.000  0.000  0.000  0.000
       0.000  1.000  0.000  0.000  0.000
       0.000  0.000  1.000  0.000  0.000
       0.000  0.000  0.000  1.000  0.000
       0.000  0.000  0.000  0.000  1.000
     occupation matrix ns (before diag.):
       1.000  0.000  0.000  0.000  0.000
       0.000  1.000  0.000  0.000  0.000
       0.000  0.000  1.000  0.000  0.000
       0.000  0.000  0.000  1.000  0.000
       0.000  0.000  0.000  0.000  1.000
     SPIN  2
     eigenvalues:
       0.900  0.900  0.900  0.900  0.900
     eigenvectors (columns):
       1.000  0.000  0.000  0.000  0.000
       0.000  1.000  0.000  0.000  0.000
       0.000  0.000  1.000  0.000  0.000
       0.000  0.000  0.000  1.000  0.000
       0.000  0.000  0.000  0.000  1.000
     occupation matrix ns (before diag.):
       0.900  0.000  0.000  0.000  0.000
       0.000  0.900  0.000  0.000  0.000
       0.000  0.000  0.900  0.000  0.000
       0.000  0.000  0.000  0.900  0.000
       0.000  0.000  0.000  0.000  0.900
     ------------------------ ATOM    3 ------------------------
     Tr[ns(  3)] (up, down, total) =   4.50000  5.00000  9.50000
     Atomic magnetic moment for atom   3 =  -0.50000
     SPIN  1
     eigenvalues:
       0.900  0.900  0.900  0.900  0.900
     eigenvectors (columns):
       1.000  0.000  0.000  0.000  0.000
       0.000  1.000  0.000  0.000  0.000
       0.000  0.000  1.000  0.000  0.000
       0.000  0.000  0.000  1.000  0.000
       0.000  0.000  0.000  0.000  1.000
     occupation matrix ns (before diag.):
       0.900  0.000  0.000  0.000  0.000
       0.000  0.900  0.000  0.000  0.000
       0.000  0.000  0.900  0.000  0.000
       0.000  0.000  0.000  0.900  0.000
       0.000  0.000  0.000  0.000  0.900
     SPIN  2
     eigenvalues:
       1.000  1.000  1.000  1.000  1.000
     eigenvectors (columns):
       1.000  0.000  0.000  0.000  0.000
       0.000  1.000  0.000  0.000  0.000
       0.000  0.000  1.000  0.000  0.000
       0.000  0.000  0.000  1.000  0.000
       0.000  0.000  0.000  0.000  1.000
     occupation matrix ns (before diag.):
       1.000  0.000  0.000  0.000  0.000
       0.000  1.000  0.000  0.000  0.000
       0.000  0.000  1.000  0.000  0.000
       0.000  0.000  0.000  1.000  0.000
       0.000  0.000  0.000  0.000  1.000
     ------------------------ ATOM    4 ------------------------
     Tr[ns(  4)] (up, down, total) =   4.50000  5.00000  9.50000
     Atomic magnetic moment for atom   4 =  -0.50000
     SPIN  1
     eigenvalues:
       0.900  0.900  0.900  0.900  0.900
     eigenvectors (columns):
       1.000  0.000  0.000  0.000  0.000
       0.000  1.000  0.000  0.000  0.000
       0.000  0.000  1.000  0.000  0.000
       0.000  0.000  0.000  1.000  0.000
       0.000  0.000  0.000  0.000  1.000
     occupation matrix ns (before diag.):
       0.900  0.000  0.000  0.000  0.000
       0.000  0.900  0.000  0.000  0.000
       0.000  0.000  0.900  0.000  0.000
       0.000  0.000  0.000  0.900  0.000
       0.000  0.000  0.000  0.000  0.900
     SPIN  2
     eigenvalues:
       1.000  1.000  1.000  1.000  1.000
     eigenvectors (columns):
       1.000  0.000  0.000  0.000  0.000
       0.000  1.000  0.000  0.000  0.000
       0.000  0.000  1.000  0.000  0.000
       0.000  0.000  0.000  1.000  0.000
       0.000  0.000  0.000  0.000  1.000
     occupation matrix ns (before diag.):
       1.000  0.000  0.000  0.000  0.000
       0.000  1.000  0.000  0.000  0.000
       0.000  0.000  1.000  0.000  0.000
       0.000  0.000  0.000  1.000  0.000
       0.000  0.000  0.000  0.000  1.000

     Number of occupied Hubbard levels =   38.0000

     Atomic wfc used for Hubbard projectors are orthogonalized

     Starting wfcs are  116 randomized atomic wfcs

     total cpu time spent up to now is        8.8 secs

     Self-consistent Calculation

     iteration #  1     ecut=    50.00 Ry     beta= 0.70
     Davidson diagonalization with overlap

---- Real-time Memory Report at c_bands before calling an iterative solver
           164 MiB given to the printing process from OS
             0 MiB allocation reported by mallinfo(arena+hblkhd)
         58779 MiB available memory on the node where the printing process lives
------------------
     ethr =  1.00E-02,  avg # of iterations =  8.0

     =================== HUBBARD OCCUPATIONS ===================
     ------------------------ ATOM    1 ------------------------
     Tr[ns(  1)] (up, down, total) =   4.98837  4.00166  8.99002
     Atomic magnetic moment for atom   1 =   0.98671
     SPIN  1
     eigenvalues:
       0.994  0.996  0.999  0.999  0.999
     eigenvectors (columns):
       0.062 -0.998 -0.000 -0.000  0.000
      -0.000 -0.000  0.707  0.000 -0.707
      -0.000 -0.000 -0.707  0.000 -0.707
       0.000  0.000  0.000 -1.000 -0.000
       0.998  0.062 -0.000  0.000 -0.000
     occupation matrix ns (before diag.):
       0.996 -0.000 -0.000  0.000 -0.000
      -0.000  0.999  0.000  0.000  0.000
      -0.000  0.000  0.999  0.000  0.000
       0.000  0.000  0.000  0.999 -0.000
      -0.000  0.000  0.000 -0.000  0.994
     SPIN  2
     eigenvalues:
       0.183  0.852  0.988  0.989  0.990
     eigenvectors (columns):
      -0.812 -0.584 -0.000 -0.000 -0.000
      -0.000 -0.000  0.707 -0.000 -0.707
       0.000 -0.000  0.707 -0.000  0.707
      -0.000  0.000 -0.000 -1.000  0.000
      -0.584  0.812  0.000  0.000  0.000
     occupation matrix ns (before diag.):
       0.411 -0.000 -0.000  0.000 -0.317
      -0.000  0.989 -0.001  0.000  0.000
      -0.000 -0.001  0.989  0.000  0.000
       0.000  0.000  0.000  0.989 -0.000
      -0.317  0.000  0.000 -0.000  0.623
     ------------------------ ATOM    2 ------------------------
     Tr[ns(  2)] (up, down, total) =   4.98837  4.00526  8.99363
     Atomic magnetic moment for atom   2 =   0.98311
     SPIN  1
     eigenvalues:
       0.994  0.996  0.999  0.999  0.999
     eigenvectors (columns):
      -0.063  0.998  0.000  0.000  0.000
      -0.000  0.000 -0.707  0.000 -0.707
      -0.000  0.000 -0.707 -0.000  0.707
       0.000 -0.000  0.000  1.000  0.000
       0.998  0.063 -0.000 -0.000  0.000
     occupation matrix ns (before diag.):
       0.996 -0.000 -0.000  0.000  0.000
      -0.000  0.999 -0.000  0.000  0.000
      -0.000 -0.000  0.999  0.000  0.000
       0.000  0.000  0.000  0.999 -0.000
       0.000  0.000  0.000 -0.000  0.994
     SPIN  2
     eigenvalues:
       0.183  0.855  0.988  0.989  0.990
     eigenvectors (columns):
       0.811  0.585 -0.000 -0.000 -0.000
       0.000  0.000  0.707 -0.000 -0.707
       0.000 -0.000 -0.707 -0.000 -0.707
      -0.000  0.000  0.000  1.000 -0.000
      -0.585  0.811 -0.000 -0.000 -0.000
     occupation matrix ns (before diag.):
       0.413 -0.000 -0.000 -0.000  0.319
      -0.000  0.989  0.001  0.000  0.000
      -0.000  0.001  0.989  0.000  0.000
      -0.000  0.000  0.000  0.989 -0.000
       0.319  0.000  0.000 -0.000  0.625
     ------------------------ ATOM    3 ------------------------
     Tr[ns(  3)] (up, down, total) =   4.00524  4.98837  8.99361
     Atomic magnetic moment for atom   3 =  -0.98314
     SPIN  1
     eigenvalues:
       0.183  0.855  0.988  0.989  0.990
     eigenvectors (columns):
       0.811  0.585 -0.000 -0.000 -0.000
       0.000  0.000  0.707 -0.000 -0.707
       0.000 -0.000 -0.707 -0.000 -0.707
      -0.000  0.000  0.000  1.000 -0.000
      -0.585  0.811 -0.000 -0.000 -0.000
     occupation matrix ns (before diag.):
       0.413 -0.000 -0.000 -0.000  0.319
      -0.000  0.989  0.001  0.000  0.000
      -0.000  0.001  0.989  0.000  0.000
      -0.000  0.000  0.000  0.989 -0.000
       0.319  0.000  0.000 -0.000  0.625
     SPIN  2
     eigenvalues:
       0.994  0.996  0.999  0.999  0.999
     eigenvectors (columns):
      -0.062  0.998  0.000  0.000  0.000
      -0.000  0.000 -0.707  0.000 -0.707
      -0.000  0.000 -0.707 -0.000  0.707
       0.000 -0.000  0.000  1.000  0.000
       0.998  0.062 -0.000 -0.000  0.000
     occupation matrix ns (before diag.):
       0.996 -0.000 -0.000  0.000  0.000
      -0.000  0.999 -0.000  0.000  0.000
      -0.000 -0.000  0.999  0.000  0.000
       0.000  0.000  0.000  0.999 -0.000
       0.000  0.000  0.000 -0.000  0.994
     ------------------------ ATOM    4 ------------------------
     Tr[ns(  4)] (up, down, total) =   4.00127  4.98837  8.98963
     Atomic magnetic moment for atom   4 =  -0.98710
     SPIN  1
     eigenvalues:
       0.183  0.851  0.988  0.989  0.990
     eigenvectors (columns):
      -0.812 -0.584 -0.000 -0.000 -0.000
      -0.000 -0.000  0.707 -0.000 -0.707
       0.000 -0.000  0.707 -0.000  0.707
      -0.000  0.000 -0.000 -1.000  0.000
      -0.584  0.812  0.000  0.000  0.000
     occupation matrix ns (before diag.):
       0.411 -0.000 -0.000  0.000 -0.317
      -0.000  0.989 -0.001  0.000  0.000
      -0.000 -0.001  0.989  0.000  0.000
       0.000  0.000  0.000  0.989 -0.000
      -0.317  0.000  0.000 -0.000  0.623
     SPIN  2
     eigenvalues:
       0.994  0.996  0.999  0.999  0.999
     eigenvectors (columns):
       0.062 -0.998 -0.000 -0.000  0.000
      -0.000 -0.000  0.707  0.000 -0.707
      -0.000 -0.000 -0.707  0.000 -0.707
       0.000  0.000 -0.000 -1.000 -0.000
       0.998  0.062 -0.000  0.000 -0.000
     occupation matrix ns (before diag.):
       0.996 -0.000 -0.000  0.000 -0.000
      -0.000  0.999  0.000  0.000  0.000
      -0.000  0.000  0.999  0.000  0.000
       0.000  0.000  0.000  0.999 -0.000
      -0.000  0.000  0.000 -0.000  0.994

     Number of occupied Hubbard levels =   35.9669

     HUBBARD ENERGY =    0.3089  (Ry)

     total cpu time spent up to now is       17.5 secs

     total energy              =   -1309.02451423 Ry
     estimated scf accuracy    <      14.00317043 Ry

     total magnetization       =    -0.00 Bohr mag/cell
     absolute magnetization    =     5.41 Bohr mag/cell

     iteration #  2     ecut=    50.00 Ry     beta= 0.70
     Davidson diagonalization with overlap

---- Real-time Memory Report at c_bands before calling an iterative solver
           177 MiB given to the printing process from OS
             0 MiB allocation reported by mallinfo(arena+hblkhd)
         58509 MiB available memory on the node where the printing process lives
------------------
     ethr =  8.54E-03,  avg # of iterations =  2.0

     =================== HUBBARD OCCUPATIONS ===================
     ------------------------ ATOM    1 ------------------------
     Tr[ns(  1)] (up, down, total) =   4.95983  4.67125  9.63109
     Atomic magnetic moment for atom   1 =   0.28858
     SPIN  1
     eigenvalues:
       0.988  0.991  0.993  0.994  0.994
     eigenvectors (columns):
      -0.853 -0.523  0.000  0.000  0.000
      -0.000 -0.000  0.707 -0.000 -0.707
       0.000 -0.000 -0.707 -0.000 -0.707
      -0.000  0.000 -0.000  1.000 -0.000
      -0.523  0.853 -0.000 -0.000 -0.000
     occupation matrix ns (before diag.):
       0.989 -0.000 -0.000  0.000 -0.002
      -0.000  0.994  0.000  0.000  0.000
      -0.000  0.000  0.994  0.000  0.000
       0.000  0.000  0.000  0.994 -0.000
      -0.002  0.000  0.000 -0.000  0.990
     SPIN  2
     eigenvalues:
       0.694  0.987  0.997  0.997  0.997
     eigenvectors (columns):
      -0.801 -0.598  0.000  0.000  0.000
      -0.000 -0.000  0.707 -0.000 -0.707
       0.000 -0.000 -0.707 -0.000 -0.707
      -0.000  0.000  0.000  1.000 -0.000
      -0.598  0.801 -0.000 -0.000 -0.000
     occupation matrix ns (before diag.):
       0.799 -0.000 -0.000  0.000 -0.141
      -0.000  0.997  0.000  0.000  0.000
      -0.000  0.000  0.997  0.000  0.000
       0.000  0.000  0.000  0.997 -0.000
      -0.141  0.000  0.000 -0.000  0.882
     ------------------------ ATOM    2 ------------------------
     Tr[ns(  2)] (up, down, total) =   4.95999  4.66575  9.62573
     Atomic magnetic moment for atom   2 =   0.29424
     SPIN  1
     eigenvalues:
       0.988  0.991  0.993  0.994  0.994
     eigenvectors (columns):
       0.854  0.520  0.000 -0.000  0.000
       0.000 -0.000 -0.707  0.000 -0.707
       0.000 -0.000 -0.707  0.000  0.707
      -0.000  0.000  0.000  1.000  0.000
      -0.520  0.854 -0.000 -0.000  0.000
     occupation matrix ns (before diag.):
       0.989 -0.000 -0.000  0.000  0.002
      -0.000  0.994 -0.000  0.000  0.000
      -0.000 -0.000  0.994  0.000  0.000
       0.000  0.000  0.000  0.994 -0.000
       0.002  0.000  0.000 -0.000  0.990
     SPIN  2
     eigenvalues:
       0.688  0.987  0.997  0.997  0.997
     eigenvectors (columns):
       0.801  0.599  0.000  0.000  0.000
       0.000  0.000  0.707 -0.000 -0.707
       0.000 -0.000  0.707 -0.000  0.707
      -0.000  0.000 -0.000 -1.000  0.000
      -0.599  0.801  0.000  0.000  0.000
     occupation matrix ns (before diag.):
       0.795 -0.000 -0.000 -0.000  0.143
      -0.000  0.997 -0.000  0.000  0.000
      -0.000 -0.000  0.997  0.000  0.000
      -0.000  0.000  0.000  0.997 -0.000
       0.143  0.000  0.000 -0.000  0.880
     ------------------------ ATOM    3 ------------------------
     Tr[ns(  3)] (up, down, total) =   4.66590  4.95999  9.62589
     Atomic magnetic moment for atom   3 =  -0.29409
     SPIN  1
     eigenvalues:
       0.688  0.987  0.997  0.997  0.997
     eigenvectors (columns):
       0.801  0.599  0.000 -0.000 -0.000
       0.000  0.000  0.707  0.000  0.707
       0.000 -0.000  0.707  0.000 -0.707
      -0.000  0.000 -0.000  1.000 -0.000
      -0.599  0.801  0.000 -0.000 -0.000
     occupation matrix ns (before diag.):
       0.795 -0.000 -0.000 -0.000  0.143
      -0.000  0.997 -0.000  0.000  0.000
      -0.000 -0.000  0.997  0.000  0.000
      -0.000  0.000  0.000  0.997 -0.000
       0.143  0.000  0.000 -0.000  0.880
     SPIN  2
     eigenvalues:
       0.988  0.991  0.993  0.994  0.994
     eigenvectors (columns):
       0.854  0.520  0.000 -0.000  0.000
       0.000 -0.000 -0.707  0.000 -0.707
       0.000 -0.000 -0.707  0.000  0.707
      -0.000  0.000  0.000  1.000  0.000
      -0.520  0.854 -0.000 -0.000  0.000
     occupation matrix ns (before diag.):
       0.989 -0.000 -0.000  0.000  0.002
      -0.000  0.994 -0.000  0.000  0.000
      -0.000 -0.000  0.994  0.000  0.000
       0.000  0.000  0.000  0.994 -0.000
       0.002  0.000  0.000 -0.000  0.990
     ------------------------ ATOM    4 ------------------------
     Tr[ns(  4)] (up, down, total) =   4.67197  4.95982  9.63178
     Atomic magnetic moment for atom   4 =  -0.28785
     SPIN  1
     eigenvalues:
       0.694  0.987  0.997  0.997  0.997
     eigenvectors (columns):
      -0.801 -0.598  0.000  0.000  0.000
      -0.000 -0.000  0.707 -0.000 -0.707
       0.000 -0.000 -0.707 -0.000 -0.707
      -0.000  0.000  0.000  1.000 -0.000
      -0.598  0.801 -0.000 -0.000 -0.000
     occupation matrix ns (before diag.):
       0.799 -0.000 -0.000  0.000 -0.140
      -0.000  0.997  0.000  0.000  0.000
      -0.000  0.000  0.997  0.000  0.000
       0.000  0.000  0.000  0.997 -0.000
      -0.140  0.000  0.000 -0.000  0.882
     SPIN  2
     eigenvalues:
       0.988  0.991  0.993  0.994  0.994
     eigenvectors (columns):
      -0.852 -0.523  0.000  0.000  0.000
      -0.000 -0.000  0.707 -0.000 -0.707
       0.000 -0.000 -0.707 -0.000 -0.707
      -0.000  0.000  0.000  1.000 -0.000
      -0.523  0.852 -0.000 -0.000 -0.000
     occupation matrix ns (before diag.):
       0.989 -0.000 -0.000  0.000 -0.002
      -0.000  0.994  0.000  0.000  0.000
      -0.000  0.000  0.994  0.000  0.000
       0.000  0.000  0.000  0.994 -0.000
      -0.002  0.000  0.000 -0.000  0.990

     Number of occupied Hubbard levels =   38.5145

     HUBBARD ENERGY =    0.3567  (Ry)

     total cpu time spent up to now is       24.8 secs

     total energy              =   -1308.66160660 Ry
     estimated scf accuracy    <       9.56552716 Ry

     total magnetization       =     0.00 Bohr mag/cell
     absolute magnetization    =     2.80 Bohr mag/cell

     iteration #  3     ecut=    50.00 Ry     beta= 0.70
     Davidson diagonalization with overlap

---- Real-time Memory Report at c_bands before calling an iterative solver
           179 MiB given to the printing process from OS
             0 MiB allocation reported by mallinfo(arena+hblkhd)
         58488 MiB available memory on the node where the printing process lives
------------------
     ethr =  5.83E-03,  avg # of iterations =  2.0

     =================== HUBBARD OCCUPATIONS ===================
     ------------------------ ATOM    1 ------------------------
     Tr[ns(  1)] (up, down, total) =   4.97876  4.06619  9.04495
     Atomic magnetic moment for atom   1 =   0.91257
     SPIN  1
     eigenvalues:
       0.989  0.994  0.998  0.998  0.998
     eigenvectors (columns):
      -0.076  0.997 -0.000  0.000 -0.000
      -0.000  0.000  0.707  0.000  0.707
      -0.000  0.000  0.707  0.000 -0.707
       0.000 -0.000 -0.000  1.000 -0.000
       0.997  0.076  0.000 -0.000 -0.000
     occupation matrix ns (before diag.):
       0.994 -0.000 -0.000  0.000  0.000
      -0.000  0.998 -0.000  0.000  0.000
      -0.000 -0.000  0.998  0.000  0.000
       0.000  0.000  0.000  0.998 -0.000
       0.000  0.000  0.000 -0.000  0.989
     SPIN  2
     eigenvalues:
       0.102  0.978  0.995  0.996  0.996
     eigenvectors (columns):
      -0.811 -0.586 -0.000 -0.000 -0.000
      -0.000 -0.000  0.707 -0.000 -0.707
       0.000 -0.000  0.707 -0.000  0.707
      -0.000  0.000 -0.000 -1.000  0.000
      -0.586  0.811  0.000  0.000  0.000
     occupation matrix ns (before diag.):
       0.402 -0.000 -0.000  0.000 -0.416
      -0.000  0.996 -0.000  0.000  0.000
      -0.000 -0.000  0.996  0.000  0.000
       0.000  0.000  0.000  0.996 -0.000
      -0.416  0.000  0.000 -0.000  0.677
     ------------------------ ATOM    2 ------------------------
     Tr[ns(  2)] (up, down, total) =   4.97915  4.06797  9.04712
     Atomic magnetic moment for atom   2 =   0.91118
     SPIN  1
     eigenvalues:
       0.990  0.994  0.998  0.998  0.999
     eigenvectors (columns):
       0.076 -0.997 -0.000  0.000  0.000
      -0.000 -0.000  0.707 -0.000 -0.707
      -0.000 -0.000 -0.707 -0.000 -0.707
       0.000  0.000  0.000  1.000 -0.000
       0.997  0.076 -0.000 -0.000 -0.000
     occupation matrix ns (before diag.):
       0.994 -0.000 -0.000  0.000 -0.000
      -0.000  0.998  0.000  0.000  0.000
      -0.000  0.000  0.998  0.000  0.000
       0.000  0.000  0.000  0.998 -0.000
      -0.000  0.000  0.000 -0.000  0.990
     SPIN  2
     eigenvalues:
       0.103  0.978  0.995  0.996  0.996
     eigenvectors (columns):
       0.810  0.586 -0.000 -0.000 -0.000
       0.000  0.000  0.707 -0.000 -0.707
       0.000 -0.000 -0.707 -0.000 -0.707
      -0.000  0.000  0.000  1.000 -0.000
      -0.586  0.810 -0.000 -0.000 -0.000
     occupation matrix ns (before diag.):
       0.404 -0.000  0.000 -0.000  0.416
      -0.000  0.996  0.000  0.000  0.000
       0.000  0.000  0.996  0.000  0.000
      -0.000  0.000  0.000  0.996 -0.000
       0.416  0.000  0.000 -0.000  0.677
     ------------------------ ATOM    3 ------------------------
     Tr[ns(  3)] (up, down, total) =   4.06795  4.97913  9.04708
     Atomic magnetic moment for atom   3 =  -0.91118
     SPIN  1
     eigenvalues:
       0.102  0.978  0.995  0.996  0.996
     eigenvectors (columns):
       0.810  0.587 -0.000 -0.000 -0.000
       0.000  0.000  0.707 -0.000 -0.707
       0.000 -0.000 -0.707 -0.000 -0.707
      -0.000  0.000  0.000  1.000 -0.000
      -0.587  0.810 -0.000 -0.000 -0.000
     occupation matrix ns (before diag.):
       0.404 -0.000  0.000 -0.000  0.416
      -0.000  0.996  0.000  0.000  0.000
       0.000  0.000  0.996  0.000  0.000
      -0.000  0.000  0.000  0.996 -0.000
       0.416  0.000  0.000 -0.000  0.677
     SPIN  2
     eigenvalues:
       0.990  0.994  0.998  0.998  0.999
     eigenvectors (columns):
       0.076 -0.997 -0.000  0.000  0.000
      -0.000 -0.000  0.707 -0.000 -0.707
      -0.000 -0.000 -0.707 -0.000 -0.707
       0.000  0.000  0.000  1.000 -0.000
       0.997  0.076 -0.000 -0.000 -0.000
     occupation matrix ns (before diag.):
       0.994 -0.000 -0.000  0.000 -0.000
      -0.000  0.998  0.000  0.000  0.000
      -0.000  0.000  0.998  0.000  0.000
       0.000  0.000  0.000  0.998 -0.000
      -0.000  0.000  0.000 -0.000  0.990
     ------------------------ ATOM    4 ------------------------
     Tr[ns(  4)] (up, down, total) =   4.06596  4.97871  9.04467
     Atomic magnetic moment for atom   4 =  -0.91275
     SPIN  1
     eigenvalues:
       0.101  0.978  0.995  0.996  0.996
     eigenvectors (columns):
      -0.811 -0.586 -0.000 -0.000 -0.000
      -0.000 -0.000  0.707 -0.000 -0.707
       0.000 -0.000  0.707 -0.000  0.707
      -0.000  0.000 -0.000 -1.000  0.000
      -0.586  0.811  0.000  0.000  0.000
     occupation matrix ns (before diag.):
       0.402 -0.000 -0.000  0.000 -0.416
      -0.000  0.996 -0.000  0.000  0.000
      -0.000 -0.000  0.996  0.000  0.000
       0.000  0.000  0.000  0.996 -0.000
      -0.416  0.000  0.000 -0.000  0.677
     SPIN  2
     eigenvalues:
       0.989  0.994  0.998  0.998  0.998
     eigenvectors (columns):
      -0.075  0.997 -0.000  0.000 -0.000
      -0.000  0.000  0.707  0.000  0.707
      -0.000  0.000  0.707  0.000 -0.707
       0.000  0.000 -0.000  1.000 -0.000
       0.997  0.075  0.000 -0.000 -0.000
     occupation matrix ns (before diag.):
       0.994 -0.000 -0.000  0.000  0.000
      -0.000  0.998 -0.000  0.000  0.000
      -0.000 -0.000  0.998  0.000  0.000
       0.000  0.000  0.000  0.998 -0.000
       0.000  0.000  0.000 -0.000  0.989

     Number of occupied Hubbard levels =   36.1838

     HUBBARD ENERGY =    0.2614  (Ry)

     total cpu time spent up to now is       31.9 secs

     total energy              =   -1311.16180017 Ry
     estimated scf accuracy    <       2.56070050 Ry

     total magnetization       =    -0.00 Bohr mag/cell
     absolute magnetization    =     4.18 Bohr mag/cell

     iteration #  4     ecut=    50.00 Ry     beta= 0.70
     Davidson diagonalization with overlap

---- Real-time Memory Report at c_bands before calling an iterative solver
           184 MiB given to the printing process from OS
             0 MiB allocation reported by mallinfo(arena+hblkhd)
         58460 MiB available memory on the node where the printing process lives
------------------
     ethr =  1.56E-03,  avg # of iterations =  2.0

     =================== HUBBARD OCCUPATIONS ===================
     ------------------------ ATOM    1 ------------------------
     Tr[ns(  1)] (up, down, total) =   4.98253  4.22476  9.20729
     Atomic magnetic moment for atom   1 =   0.75776
     SPIN  1
     eigenvalues:
       0.991  0.994  0.999  0.999  0.999
     eigenvectors (columns):
      -0.876 -0.482 -0.000  0.000  0.000
      -0.000 -0.000  0.707 -0.000 -0.707
       0.000 -0.000 -0.707 -0.000 -0.707
      -0.000  0.000  0.000  1.000 -0.000
      -0.482  0.876 -0.000 -0.000 -0.000
     occupation matrix ns (before diag.):
       0.992 -0.000 -0.000  0.000 -0.001
      -0.000  0.999  0.000  0.000  0.000
      -0.000  0.000  0.999  0.000  0.000
       0.000  0.000  0.000  0.999 -0.000
      -0.001  0.000  0.000 -0.000  0.993
     SPIN  2
     eigenvalues:
       0.237  0.990  0.999  0.999  0.999
     eigenvectors (columns):
      -0.806 -0.591  0.000  0.000  0.000
      -0.000 -0.000  0.707 -0.000 -0.707
       0.000 -0.000 -0.707 -0.000 -0.707
      -0.000  0.000  0.000  1.000 -0.000
      -0.591  0.806 -0.000 -0.000 -0.000
     occupation matrix ns (before diag.):
       0.500 -0.000 -0.000  0.000 -0.359
      -0.000  0.999  0.000  0.000  0.000
      -0.000  0.000  0.999  0.000  0.000
       0.000  0.000  0.000  0.999 -0.000
      -0.359  0.000  0.000 -0.000  0.726
     ------------------------ ATOM    2 ------------------------
     Tr[ns(  2)] (up, down, total) =   4.98245  4.22280  9.20525
     Atomic magnetic moment for atom   2 =   0.75965
     SPIN  1
     eigenvalues:
       0.991  0.994  0.999  0.999  0.999
     eigenvectors (columns):
       0.881  0.473  0.000 -0.000  0.000
       0.000 -0.000 -0.707  0.000 -0.707
       0.000 -0.000 -0.707  0.000  0.707
      -0.000  0.000  0.000  1.000  0.000
      -0.473  0.881 -0.000 -0.000  0.000
     occupation matrix ns (before diag.):
       0.992 -0.000 -0.000  0.000  0.001
      -0.000  0.999 -0.000  0.000  0.000
      -0.000 -0.000  0.999  0.000  0.000
       0.000  0.000  0.000  0.999 -0.000
       0.001  0.000  0.000 -0.000  0.993
     SPIN  2
     eigenvalues:
       0.235  0.990  0.999  0.999  0.999
     eigenvectors (columns):
       0.806  0.592  0.000 -0.000 -0.000
       0.000  0.000  0.707  0.000  0.707
       0.000 -0.000  0.707  0.000 -0.707
      -0.000  0.000 -0.000  1.000 -0.000
      -0.592  0.806  0.000 -0.000 -0.000
     occupation matrix ns (before diag.):
       0.500 -0.000  0.000 -0.000  0.360
      -0.000  0.999 -0.000  0.000  0.000
       0.000 -0.000  0.999  0.000  0.000
      -0.000  0.000  0.000  0.999 -0.000
       0.360  0.000  0.000 -0.000  0.725
     ------------------------ ATOM    3 ------------------------
     Tr[ns(  3)] (up, down, total) =   4.22279  4.98245  9.20524
     Atomic magnetic moment for atom   3 =  -0.75966
     SPIN  1
     eigenvalues:
       0.235  0.990  0.999  0.999  0.999
     eigenvectors (columns):
       0.806  0.592  0.000 -0.000 -0.000
       0.000  0.000  0.707  0.000  0.707
       0.000 -0.000  0.707  0.000 -0.707
      -0.000  0.000 -0.000  1.000 -0.000
      -0.592  0.806  0.000 -0.000 -0.000
     occupation matrix ns (before diag.):
       0.499 -0.000  0.000 -0.000  0.360
      -0.000  0.999 -0.000  0.000  0.000
       0.000 -0.000  0.999  0.000  0.000
      -0.000  0.000  0.000  0.999 -0.000
       0.360  0.000  0.000 -0.000  0.725
     SPIN  2
     eigenvalues:
       0.991  0.994  0.999  0.999  0.999
     eigenvectors (columns):
       0.881  0.473  0.000 -0.000  0.000
       0.000 -0.000 -0.707  0.000 -0.707
       0.000 -0.000 -0.707  0.000  0.707
      -0.000  0.000  0.000  1.000  0.000
      -0.473  0.881 -0.000 -0.000  0.000
     occupation matrix ns (before diag.):
       0.992 -0.000 -0.000  0.000  0.001
      -0.000  0.999 -0.000  0.000  0.000
      -0.000 -0.000  0.999  0.000  0.000
       0.000  0.000  0.000  0.999 -0.000
       0.001  0.000  0.000 -0.000  0.993
     ------------------------ ATOM    4 ------------------------
     Tr[ns(  4)] (up, down, total) =   4.22495  4.98252  9.20747
     Atomic magnetic moment for atom   4 =  -0.75757
     SPIN  1
     eigenvalues:
       0.237  0.990  0.999  0.999  0.999
     eigenvectors (columns):
      -0.806 -0.591  0.000  0.000  0.000
      -0.000 -0.000  0.707 -0.000 -0.707
       0.000 -0.000 -0.707 -0.000 -0.707
      -0.000  0.000  0.000  1.000 -0.000
      -0.591  0.806 -0.000 -0.000 -0.000
     occupation matrix ns (before diag.):
       0.500 -0.000 -0.000  0.000 -0.359
      -0.000  0.999  0.000  0.000  0.000
      -0.000  0.000  0.999  0.000  0.000
       0.000  0.000  0.000  0.999 -0.000
      -0.359  0.000  0.000 -0.000  0.727
     SPIN  2
     eigenvalues:
       0.991  0.994  0.999  0.999  0.999
     eigenvectors (columns):
      -0.876 -0.482 -0.000  0.000  0.000
      -0.000 -0.000  0.707 -0.000 -0.707
       0.000 -0.000 -0.707 -0.000 -0.707
      -0.000  0.000  0.000  1.000 -0.000
      -0.482  0.876 -0.000 -0.000 -0.000
     occupation matrix ns (before diag.):
       0.992 -0.000 -0.000  0.000 -0.001
      -0.000  0.999  0.000  0.000  0.000
      -0.000  0.000  0.999  0.000  0.000
       0.000  0.000  0.000  0.999 -0.000
      -0.001  0.000  0.000 -0.000  0.993

     Number of occupied Hubbard levels =   36.8253

     HUBBARD ENERGY =    0.2411  (Ry)

     total cpu time spent up to now is       39.0 secs

     total energy              =   -1311.47154609 Ry
     estimated scf accuracy    <       0.11612200 Ry

     total magnetization       =     0.00 Bohr mag/cell
     absolute magnetization    =     3.74 Bohr mag/cell

     iteration #  5     ecut=    50.00 Ry     beta= 0.70
     Davidson diagonalization with overlap

---- Real-time Memory Report at c_bands before calling an iterative solver
           185 MiB given to the printing process from OS
             0 MiB allocation reported by mallinfo(arena+hblkhd)
         58441 MiB available memory on the node where the printing process lives
------------------
     ethr =  7.08E-05,  avg # of iterations = 12.7

     =================== HUBBARD OCCUPATIONS ===================
     ------------------------ ATOM    1 ------------------------
     Tr[ns(  1)] (up, down, total) =   4.98248  4.21239  9.19488
     Atomic magnetic moment for atom   1 =   0.77009
     SPIN  1
     eigenvalues:
       0.991  0.993  0.999  0.999  0.999
     eigenvectors (columns):
      -0.839 -0.544 -0.000  0.000  0.000
      -0.000 -0.000  0.707 -0.000 -0.707
       0.000 -0.000 -0.707 -0.000 -0.707
      -0.000  0.000  0.000  1.000 -0.000
      -0.544  0.839 -0.000 -0.000 -0.000
     occupation matrix ns (before diag.):
       0.992 -0.000 -0.000  0.000 -0.001
      -0.000  0.999  0.000  0.000  0.000
      -0.000  0.000  0.999  0.000  0.000
       0.000  0.000  0.000  0.999 -0.000
      -0.001  0.000  0.000 -0.000  0.993
     SPIN  2
     eigenvalues:
       0.225  0.989  0.999  0.999  0.999
     eigenvectors (columns):
      -0.806 -0.592  0.000  0.000  0.000
      -0.000 -0.000  0.707 -0.000 -0.707
       0.000 -0.000 -0.707 -0.000 -0.707
      -0.000  0.000  0.000  1.000 -0.000
      -0.592  0.806 -0.000 -0.000 -0.000
     occupation matrix ns (before diag.):
       0.493 -0.000 -0.000  0.000 -0.365
      -0.000  0.999  0.000  0.000  0.000
      -0.000  0.000  0.999  0.000  0.000
       0.000  0.000  0.000  0.999 -0.000
      -0.365  0.000  0.000 -0.000  0.721
     ------------------------ ATOM    2 ------------------------
     Tr[ns(  2)] (up, down, total) =   4.98256  4.21341  9.19598
     Atomic magnetic moment for atom   2 =   0.76915
     SPIN  1
     eigenvalues:
       0.991  0.993  0.999  0.999  0.999
     eigenvectors (columns):
       0.834  0.552  0.000 -0.000  0.000
       0.000 -0.000 -0.707  0.000 -0.707
       0.000 -0.000 -0.707  0.000  0.707
      -0.000  0.000  0.000  1.000  0.000
      -0.552  0.834 -0.000 -0.000  0.000
     occupation matrix ns (before diag.):
       0.992 -0.000 -0.000  0.000  0.001
      -0.000  0.999 -0.000  0.000  0.000
      -0.000 -0.000  0.999  0.000  0.000
       0.000  0.000  0.000  0.999 -0.000
       0.001  0.000  0.000 -0.000  0.993
     SPIN  2
     eigenvalues:
       0.226  0.989  0.999  0.999  0.999
     eigenvectors (columns):
       0.805  0.593  0.000 -0.000 -0.000
       0.000  0.000  0.707  0.000  0.707
       0.000 -0.000  0.707  0.000 -0.707
      -0.000  0.000 -0.000  1.000 -0.000
      -0.593  0.805  0.000 -0.000 -0.000
     occupation matrix ns (before diag.):
       0.494 -0.000  0.000 -0.000  0.365
      -0.000  0.999 -0.000  0.000  0.000
       0.000 -0.000  0.999  0.000  0.000
      -0.000  0.000  0.000  0.999 -0.000
       0.365  0.000  0.000 -0.000  0.721
     ------------------------ ATOM    3 ------------------------
     Tr[ns(  3)] (up, down, total) =   4.21344  4.98256  9.19600
     Atomic magnetic moment for atom   3 =  -0.76912
     SPIN  1
     eigenvalues:
       0.226  0.989  0.999  0.999  0.999
     eigenvectors (columns):
       0.805  0.593  0.000 -0.000 -0.000
       0.000  0.000  0.707  0.000  0.707
       0.000 -0.000  0.707  0.000 -0.707
      -0.000  0.000 -0.000  1.000 -0.000
      -0.593  0.805  0.000 -0.000 -0.000
     occupation matrix ns (before diag.):
       0.494 -0.000  0.000 -0.000  0.365
      -0.000  0.999 -0.000  0.000  0.000
       0.000 -0.000  0.999  0.000  0.000
      -0.000  0.000  0.000  0.999 -0.000
       0.365  0.000  0.000 -0.000  0.721
     SPIN  2
     eigenvalues:
       0.991  0.993  0.999  0.999  0.999
     eigenvectors (columns):
       0.835  0.551  0.000 -0.000  0.000
       0.000 -0.000 -0.707  0.000 -0.707
       0.000 -0.000 -0.707  0.000  0.707
      -0.000  0.000  0.000  1.000  0.000
      -0.551  0.835 -0.000 -0.000  0.000
     occupation matrix ns (before diag.):
       0.992 -0.000 -0.000  0.000  0.001
      -0.000  0.999 -0.000  0.000  0.000
      -0.000 -0.000  0.999  0.000  0.000
       0.000  0.000  0.000  0.999 -0.000
       0.001  0.000  0.000 -0.000  0.993
     ------------------------ ATOM    4 ------------------------
     Tr[ns(  4)] (up, down, total) =   4.21228  4.98248  9.19476
     Atomic magnetic moment for atom   4 =  -0.77020
     SPIN  1
     eigenvalues:
       0.225  0.989  0.999  0.999  0.999
     eigenvectors (columns):
      -0.806 -0.592  0.000  0.000  0.000
      -0.000 -0.000  0.707 -0.000 -0.707
       0.000 -0.000 -0.707 -0.000 -0.707
      -0.000  0.000  0.000  1.000 -0.000
      -0.592  0.806 -0.000 -0.000 -0.000
     occupation matrix ns (before diag.):
       0.493 -0.000 -0.000  0.000 -0.365
      -0.000  0.999  0.000  0.000  0.000
      -0.000  0.000  0.999  0.000  0.000
       0.000  0.000  0.000  0.999 -0.000
      -0.365  0.000  0.000 -0.000  0.721
     SPIN  2
     eigenvalues:
       0.991  0.993  0.999  0.999  0.999
     eigenvectors (columns):
      -0.840 -0.543 -0.000  0.000  0.000
      -0.000 -0.000  0.707 -0.000 -0.707
       0.000 -0.000 -0.707 -0.000 -0.707
      -0.000  0.000  0.000  1.000 -0.000
      -0.543  0.840 -0.000 -0.000 -0.000
     occupation matrix ns (before diag.):
       0.992 -0.000 -0.000  0.000 -0.001
      -0.000  0.999  0.000  0.000  0.000
      -0.000  0.000  0.999  0.000  0.000
       0.000  0.000  0.000  0.999 -0.000
      -0.001  0.000  0.000 -0.000  0.993

     Number of occupied Hubbard levels =   36.7816

     HUBBARD ENERGY =    0.2119  (Ry)

     total cpu time spent up to now is       50.4 secs

     total energy              =   -1311.49137053 Ry
     estimated scf accuracy    <       0.01784539 Ry

     total magnetization       =    -0.00 Bohr mag/cell
     absolute magnetization    =     3.77 Bohr mag/cell

     iteration #  6     ecut=    50.00 Ry     beta= 0.70
     Davidson diagonalization with overlap

---- Real-time Memory Report at c_bands before calling an iterative solver
           187 MiB given to the printing process from OS
             0 MiB allocation reported by mallinfo(arena+hblkhd)
         58416 MiB available memory on the node where the printing process lives
------------------
     c_bands:  1 eigenvalues not converged
     ethr =  1.09E-05,  avg # of iterations =  7.9

     =================== HUBBARD OCCUPATIONS ===================
     ------------------------ ATOM    1 ------------------------
     Tr[ns(  1)] (up, down, total) =   4.98288  4.21616  9.19904
     Atomic magnetic moment for atom   1 =   0.76671
     SPIN  1
     eigenvalues:
       0.992  0.994  0.999  0.999  0.999
     eigenvectors (columns):
      -0.808 -0.590 -0.000  0.000  0.000
      -0.000 -0.000  0.707 -0.000 -0.707
       0.000 -0.000 -0.707 -0.000 -0.707
      -0.000  0.000  0.000  1.000 -0.000
      -0.590  0.808 -0.000 -0.000 -0.000
     occupation matrix ns (before diag.):
       0.992 -0.000 -0.000  0.000 -0.001
      -0.000  0.999  0.000  0.000  0.000
      -0.000  0.000  0.999  0.000  0.000
       0.000  0.000  0.000  0.999 -0.000
      -0.001  0.000  0.000 -0.000  0.993
     SPIN  2
     eigenvalues:
       0.228  0.990  0.999  0.999  1.000
     eigenvectors (columns):
      -0.803 -0.595  0.000  0.000  0.000
      -0.000 -0.000  0.707 -0.000 -0.707
       0.000 -0.000 -0.707 -0.000 -0.707
      -0.000  0.000  0.000  1.000 -0.000
      -0.595  0.803 -0.000 -0.000 -0.000
     occupation matrix ns (before diag.):
       0.498 -0.000 -0.000  0.000 -0.364
      -0.000  0.999  0.000  0.000  0.000
      -0.000  0.000  0.999  0.000  0.000
       0.000  0.000  0.000  0.999 -0.000
      -0.364  0.000  0.000 -0.000  0.720
     ------------------------ ATOM    2 ------------------------
     Tr[ns(  2)] (up, down, total) =   4.98277  4.21372  9.19649
     Atomic magnetic moment for atom   2 =   0.76905
     SPIN  1
     eigenvalues:
       0.992  0.994  0.999  0.999  0.999
     eigenvectors (columns):
       0.820  0.572  0.000 -0.000  0.000
       0.000  0.000 -0.707  0.000 -0.707
       0.000 -0.000 -0.707  0.000  0.707
      -0.000  0.000  0.000  1.000 -0.000
      -0.572  0.820 -0.000 -0.000  0.000
     occupation matrix ns (before diag.):
       0.992 -0.000 -0.000  0.000  0.001
      -0.000  0.999 -0.000  0.000  0.000
      -0.000 -0.000  0.999  0.000  0.000
       0.000  0.000  0.000  0.999 -0.000
       0.001  0.000  0.000 -0.000  0.993
     SPIN  2
     eigenvalues:
       0.226  0.990  0.999  0.999  1.000
     eigenvectors (columns):
       0.803  0.596  0.000 -0.000 -0.000
       0.000  0.000  0.707  0.000  0.707
       0.000 -0.000  0.707  0.000 -0.707
      -0.000  0.000 -0.000  1.000 -0.000
      -0.596  0.803  0.000 -0.000 -0.000
     occupation matrix ns (before diag.):
       0.497 -0.000  0.000 -0.000  0.366
      -0.000  0.999 -0.000  0.000  0.000
       0.000 -0.000  0.999  0.000  0.000
      -0.000  0.000  0.000  0.999 -0.000
       0.366  0.000  0.000 -0.000  0.719
     ------------------------ ATOM    3 ------------------------
     Tr[ns(  3)] (up, down, total) =   4.21366  4.98278  9.19643
     Atomic magnetic moment for atom   3 =  -0.76912
     SPIN  1
     eigenvalues:
       0.226  0.990  0.999  0.999  1.000
     eigenvectors (columns):
       0.803  0.596  0.000  0.000  0.000
       0.000  0.000  0.707 -0.000 -0.707
       0.000 -0.000  0.707 -0.000  0.707
      -0.000  0.000 -0.000 -1.000  0.000
      -0.596  0.803  0.000  0.000  0.000
     occupation matrix ns (before diag.):
       0.497 -0.000  0.000 -0.000  0.366
      -0.000  0.999 -0.000  0.000  0.000
       0.000 -0.000  0.999  0.000  0.000
      -0.000  0.000  0.000  0.999 -0.000
       0.366  0.000  0.000 -0.000  0.719
     SPIN  2
     eigenvalues:
       0.992  0.994  0.999  0.999  0.999
     eigenvectors (columns):
       0.819  0.573  0.000 -0.000  0.000
       0.000  0.000 -0.707  0.000 -0.707
       0.000 -0.000 -0.707  0.000  0.707
      -0.000  0.000  0.000  1.000 -0.000
      -0.573  0.819 -0.000 -0.000  0.000
     occupation matrix ns (before diag.):
       0.992 -0.000 -0.000  0.000  0.001
      -0.000  0.999 -0.000  0.000  0.000
      -0.000 -0.000  0.999  0.000  0.000
       0.000  0.000  0.000  0.999 -0.000
       0.001  0.000  0.000 -0.000  0.993
     ------------------------ ATOM    4 ------------------------
     Tr[ns(  4)] (up, down, total) =   4.21642  4.98288  9.19930
     Atomic magnetic moment for atom   4 =  -0.76646
     SPIN  1
     eigenvalues:
       0.228  0.990  0.999  0.999  1.000
     eigenvectors (columns):
      -0.804 -0.595  0.000  0.000  0.000
      -0.000 -0.000  0.707 -0.000 -0.707
       0.000 -0.000 -0.707 -0.000 -0.707
      -0.000  0.000  0.000  1.000 -0.000
      -0.595  0.804 -0.000 -0.000 -0.000
     occupation matrix ns (before diag.):
       0.498 -0.000 -0.000  0.000 -0.364
      -0.000  0.999  0.000  0.000  0.000
      -0.000  0.000  0.999  0.000  0.000
       0.000  0.000  0.000  0.999 -0.000
      -0.364  0.000  0.000 -0.000  0.720
     SPIN  2
     eigenvalues:
       0.992  0.994  0.999  0.999  0.999
     eigenvectors (columns):
      -0.807 -0.590 -0.000  0.000  0.000
      -0.000 -0.000  0.707 -0.000 -0.707
       0.000 -0.000 -0.707 -0.000 -0.707
      -0.000  0.000  0.000  1.000 -0.000
      -0.590  0.807 -0.000 -0.000 -0.000
     occupation matrix ns (before diag.):
       0.992 -0.000 -0.000  0.000 -0.001
      -0.000  0.999  0.000  0.000  0.000
      -0.000  0.000  0.999  0.000  0.000
       0.000  0.000  0.000  0.999 -0.000
      -0.001  0.000  0.000 -0.000  0.993

     Number of occupied Hubbard levels =   36.7913

     HUBBARD ENERGY =    0.1956  (Ry)

     total cpu time spent up to now is       60.2 secs

     total energy              =   -1311.49373002 Ry
     estimated scf accuracy    <       0.00081078 Ry

     total magnetization       =     0.00 Bohr mag/cell
     absolute magnetization    =     3.79 Bohr mag/cell

     iteration #  7     ecut=    50.00 Ry     beta= 0.70
     Davidson diagonalization with overlap

---- Real-time Memory Report at c_bands before calling an iterative solver
           189 MiB given to the printing process from OS
             0 MiB allocation reported by mallinfo(arena+hblkhd)
         58395 MiB available memory on the node where the printing process lives
------------------
     ethr =  4.94E-07,  avg # of iterations =  7.0

     =================== HUBBARD OCCUPATIONS ===================
     ------------------------ ATOM    1 ------------------------
     Tr[ns(  1)] (up, down, total) =   4.98294  4.20740  9.19034
     Atomic magnetic moment for atom   1 =   0.77554
     SPIN  1
     eigenvalues:
       0.992  0.994  0.999  0.999  0.999
     eigenvectors (columns):
      -0.802 -0.598 -0.000  0.000  0.000
      -0.000 -0.000  0.707 -0.000 -0.707
       0.000 -0.000 -0.707 -0.000 -0.707
      -0.000  0.000  0.000  1.000 -0.000
      -0.598  0.802 -0.000 -0.000 -0.000
     occupation matrix ns (before diag.):
       0.992 -0.000 -0.000  0.000 -0.001
      -0.000  0.999  0.000  0.000  0.000
      -0.000  0.000  0.999  0.000  0.000
       0.000  0.000  0.000  0.999 -0.000
      -0.001  0.000  0.000 -0.000  0.993
     SPIN  2
     eigenvalues:
       0.219  0.990  0.999  0.999  1.000
     eigenvectors (columns):
      -0.801 -0.598  0.000  0.000  0.000
      -0.000 -0.000  0.707 -0.000 -0.707
       0.000 -0.000 -0.707 -0.000 -0.707
      -0.000  0.000  0.000  1.000 -0.000
      -0.598  0.801 -0.000 -0.000 -0.000
     occupation matrix ns (before diag.):
       0.495 -0.000 -0.000  0.000 -0.370
      -0.000  0.999  0.000  0.000  0.000
      -0.000  0.000  0.999  0.000  0.000
       0.000  0.000  0.000  0.999 -0.000
      -0.370  0.000  0.000 -0.000  0.714
     ------------------------ ATOM    2 ------------------------
     Tr[ns(  2)] (up, down, total) =   4.98317  4.21356  9.19674
     Atomic magnetic moment for atom   2 =   0.76961
     SPIN  1
     eigenvalues:
       0.992  0.994  0.999  0.999  0.999
     eigenvectors (columns):
       0.766  0.643  0.000 -0.000  0.000
       0.000  0.000 -0.707  0.000 -0.707
       0.000 -0.000 -0.707  0.000  0.707
      -0.000  0.000  0.000  1.000  0.000
      -0.643  0.766 -0.000 -0.000  0.000
     occupation matrix ns (before diag.):
       0.993 -0.000 -0.000  0.000  0.001
      -0.000  0.999 -0.000  0.000  0.000
      -0.000 -0.000  0.999  0.000  0.000
       0.000  0.000  0.000  0.999 -0.000
       0.001  0.000  0.000 -0.000  0.993
     SPIN  2
     eigenvalues:
       0.225  0.990  0.999  0.999  1.000
     eigenvectors (columns):
       0.801  0.599  0.000 -0.000 -0.000
       0.000  0.000  0.707  0.000  0.707
       0.000 -0.000  0.707  0.000 -0.707
      -0.000  0.000 -0.000  1.000 -0.000
      -0.599  0.801  0.000 -0.000 -0.000
     occupation matrix ns (before diag.):
       0.499 -0.000  0.000 -0.000  0.367
      -0.000  0.999 -0.000  0.000  0.000
       0.000 -0.000  0.999  0.000  0.000
      -0.000  0.000  0.000  0.999 -0.000
       0.367  0.000  0.000 -0.000  0.716
     ------------------------ ATOM    3 ------------------------
     Tr[ns(  3)] (up, down, total) =   4.21371  4.98316  9.19687
     Atomic magnetic moment for atom   3 =  -0.76946
     SPIN  1
     eigenvalues:
       0.225  0.991  0.999  0.999  1.000
     eigenvectors (columns):
       0.801  0.599  0.000  0.000  0.000
       0.000  0.000  0.707 -0.000 -0.707
       0.000 -0.000  0.707 -0.000  0.707
      -0.000  0.000 -0.000 -1.000  0.000
      -0.599  0.801  0.000  0.000  0.000
     occupation matrix ns (before diag.):
       0.500 -0.000  0.000 -0.000  0.367
      -0.000  0.999 -0.000  0.000  0.000
       0.000 -0.000  0.999  0.000  0.000
      -0.000  0.000  0.000  0.999 -0.000
       0.367  0.000  0.000 -0.000  0.716
     SPIN  2
     eigenvalues:
       0.992  0.994  0.999  0.999  0.999
     eigenvectors (columns):
       0.768  0.640  0.000 -0.000  0.000
       0.000  0.000 -0.707  0.000 -0.707
       0.000 -0.000 -0.707  0.000  0.707
      -0.000  0.000  0.000  1.000  0.000
      -0.640  0.768 -0.000 -0.000  0.000
     occupation matrix ns (before diag.):
       0.993 -0.000 -0.000  0.000  0.001
      -0.000  0.999 -0.000  0.000  0.000
      -0.000 -0.000  0.999  0.000  0.000
       0.000  0.000  0.000  0.999 -0.000
       0.001  0.000  0.000 -0.000  0.993
     ------------------------ ATOM    4 ------------------------
     Tr[ns(  4)] (up, down, total) =   4.20686  4.98293  9.18980
     Atomic magnetic moment for atom   4 =  -0.77607
     SPIN  1
     eigenvalues:
       0.219  0.990  0.999  0.999  1.000
     eigenvectors (columns):
      -0.801 -0.598  0.000  0.000  0.000
      -0.000 -0.000  0.707 -0.000 -0.707
       0.000 -0.000 -0.707 -0.000 -0.707
      -0.000  0.000  0.000  1.000 -0.000
      -0.598  0.801 -0.000 -0.000 -0.000
     occupation matrix ns (before diag.):
       0.495 -0.000 -0.000  0.000 -0.370
      -0.000  0.999  0.000  0.000  0.000
      -0.000  0.000  0.999  0.000  0.000
       0.000  0.000  0.000  0.999 -0.000
      -0.370  0.000  0.000 -0.000  0.714
     SPIN  2
     eigenvalues:
       0.992  0.994  0.999  0.999  0.999
     eigenvectors (columns):
      -0.802 -0.597 -0.000  0.000  0.000
      -0.000 -0.000  0.707 -0.000 -0.707
       0.000 -0.000 -0.707 -0.000 -0.707
      -0.000  0.000  0.000  1.000 -0.000
      -0.597  0.802 -0.000 -0.000 -0.000
     occupation matrix ns (before diag.):
       0.992 -0.000 -0.000  0.000 -0.001
      -0.000  0.999  0.000  0.000  0.000
      -0.000  0.000  0.999  0.000  0.000
       0.000  0.000  0.000  0.999 -0.000
      -0.001  0.000  0.000 -0.000  0.993

     Number of occupied Hubbard levels =   36.7737

     HUBBARD ENERGY =    0.1944  (Ry)

     total cpu time spent up to now is       70.0 secs

     total energy              =   -1311.49391692 Ry
     estimated scf accuracy    <       0.00048401 Ry

     total magnetization       =    -0.00 Bohr mag/cell
     absolute magnetization    =     3.82 Bohr mag/cell

     iteration #  8     ecut=    50.00 Ry     beta= 0.70
     Davidson diagonalization with overlap

---- Real-time Memory Report at c_bands before calling an iterative solver
           191 MiB given to the printing process from OS
             0 MiB allocation reported by mallinfo(arena+hblkhd)
         58367 MiB available memory on the node where the printing process lives
------------------
     ethr =  2.95E-07,  avg # of iterations =  2.0

     =================== HUBBARD OCCUPATIONS ===================
     ------------------------ ATOM    1 ------------------------
     Tr[ns(  1)] (up, down, total) =   4.98308  4.21004  9.19312
     Atomic magnetic moment for atom   1 =   0.77305
     SPIN  1
     eigenvalues:
       0.992  0.994  0.999  0.999  0.999
     eigenvectors (columns):
      -0.783 -0.622 -0.000  0.000  0.000
      -0.000 -0.000  0.707 -0.000 -0.707
       0.000 -0.000 -0.707 -0.000 -0.707
      -0.000  0.000  0.000  1.000 -0.000
      -0.622  0.783 -0.000 -0.000 -0.000
     occupation matrix ns (before diag.):
       0.993 -0.000 -0.000  0.000 -0.001
      -0.000  0.999  0.000  0.000  0.000
      -0.000  0.000  0.999  0.000  0.000
       0.000  0.000  0.000  0.999 -0.000
      -0.001  0.000  0.000 -0.000  0.993
     SPIN  2
     eigenvalues:
       0.222  0.990  0.999  0.999  1.000
     eigenvectors (columns):
      -0.801 -0.599  0.000  0.000  0.000
      -0.000 -0.000  0.707 -0.000 -0.707
       0.000 -0.000 -0.707 -0.000 -0.707
      -0.000  0.000  0.000  1.000 -0.000
      -0.599  0.801 -0.000 -0.000 -0.000
     occupation matrix ns (before diag.):
       0.497 -0.000 -0.000  0.000 -0.369
      -0.000  0.999  0.000  0.000  0.000
      -0.000  0.000  0.999  0.000  0.000
       0.000  0.000  0.000  0.999 -0.000
      -0.369  0.000  0.000 -0.000  0.715
     ------------------------ ATOM    2 ------------------------
     Tr[ns(  2)] (up, down, total) =   4.98307  4.20946  9.19253
     Atomic magnetic moment for atom   2 =   0.77360
     SPIN  1
     eigenvalues:
       0.992  0.994  0.999  0.999  0.999
     eigenvectors (columns):
       0.786  0.618  0.000 -0.000  0.000
       0.000  0.000 -0.707  0.000 -0.707
       0.000 -0.000 -0.707  0.000  0.707
      -0.000  0.000  0.000  1.000  0.000
      -0.618  0.786 -0.000 -0.000  0.000
     occupation matrix ns (before diag.):
       0.993 -0.000 -0.000  0.000  0.001
      -0.000  0.999 -0.000  0.000  0.000
      -0.000 -0.000  0.999  0.000  0.000
       0.000  0.000  0.000  0.999 -0.000
       0.001  0.000  0.000 -0.000  0.993
     SPIN  2
     eigenvalues:
       0.221  0.990  0.999  0.999  1.000
     eigenvectors (columns):
       0.800  0.599  0.000 -0.000 -0.000
       0.000  0.000  0.707  0.000  0.707
       0.000 -0.000  0.707  0.000 -0.707
      -0.000  0.000 -0.000  1.000 -0.000
      -0.599  0.800  0.000 -0.000 -0.000
     occupation matrix ns (before diag.):
       0.497 -0.000  0.000 -0.000  0.369
      -0.000  0.999 -0.000  0.000  0.000
       0.000 -0.000  0.999  0.000  0.000
      -0.000  0.000  0.000  0.999 -0.000
       0.369  0.000  0.000 -0.000  0.714
     ------------------------ ATOM    3 ------------------------
     Tr[ns(  3)] (up, down, total) =   4.20943  4.98307  9.19250
     Atomic magnetic moment for atom   3 =  -0.77363
     SPIN  1
     eigenvalues:
       0.221  0.990  0.999  0.999  1.000
     eigenvectors (columns):
       0.800  0.599  0.000  0.000  0.000
       0.000  0.000  0.707 -0.000 -0.707
       0.000 -0.000  0.707 -0.000  0.707
      -0.000  0.000 -0.000 -1.000  0.000
      -0.599  0.800  0.000  0.000  0.000
     occupation matrix ns (before diag.):
       0.497 -0.000  0.000 -0.000  0.369
      -0.000  0.999 -0.000  0.000  0.000
       0.000 -0.000  0.999  0.000  0.000
      -0.000  0.000  0.000  0.999 -0.000
       0.369  0.000  0.000 -0.000  0.714
     SPIN  2
     eigenvalues:
       0.992  0.994  0.999  0.999  0.999
     eigenvectors (columns):
       0.786  0.618  0.000 -0.000  0.000
       0.000  0.000 -0.707  0.000 -0.707
       0.000 -0.000 -0.707  0.000  0.707
      -0.000  0.000  0.000  1.000  0.000
      -0.618  0.786 -0.000 -0.000  0.000
     occupation matrix ns (before diag.):
       0.993 -0.000 -0.000  0.000  0.001
      -0.000  0.999 -0.000  0.000  0.000
      -0.000 -0.000  0.999  0.000  0.000
       0.000  0.000  0.000  0.999 -0.000
       0.001  0.000  0.000 -0.000  0.993
     ------------------------ ATOM    4 ------------------------
     Tr[ns(  4)] (up, down, total) =   4.21007  4.98308  9.19316
     Atomic magnetic moment for atom   4 =  -0.77301
     SPIN  1
     eigenvalues:
       0.222  0.990  0.999  0.999  1.000
     eigenvectors (columns):
      -0.801 -0.599  0.000  0.000  0.000
      -0.000 -0.000  0.707 -0.000 -0.707
       0.000 -0.000 -0.707 -0.000 -0.707
      -0.000  0.000  0.000  1.000 -0.000
      -0.599  0.801 -0.000 -0.000 -0.000
     occupation matrix ns (before diag.):
       0.498 -0.000 -0.000  0.000 -0.369
      -0.000  0.999  0.000  0.000  0.000
      -0.000  0.000  0.999  0.000  0.000
       0.000  0.000  0.000  0.999 -0.000
      -0.369  0.000  0.000 -0.000  0.715
     SPIN  2
     eigenvalues:
       0.992  0.994  0.999  0.999  0.999
     eigenvectors (columns):
      -0.783 -0.622 -0.000  0.000  0.000
      -0.000 -0.000  0.707 -0.000 -0.707
       0.000 -0.000 -0.707 -0.000 -0.707
      -0.000  0.000  0.000  1.000 -0.000
      -0.622  0.783 -0.000 -0.000 -0.000
     occupation matrix ns (before diag.):
       0.993 -0.000 -0.000  0.000 -0.001
      -0.000  0.999  0.000  0.000  0.000
      -0.000  0.000  0.999  0.000  0.000
       0.000  0.000  0.000  0.999 -0.000
      -0.001  0.000  0.000 -0.000  0.993

     Number of occupied Hubbard levels =   36.7713

     HUBBARD ENERGY =    0.1950  (Ry)

     total cpu time spent up to now is       77.6 secs

     total energy              =   -1311.49401682 Ry
     estimated scf accuracy    <       0.00002209 Ry

     total magnetization       =     0.00 Bohr mag/cell
     absolute magnetization    =     3.82 Bohr mag/cell

     iteration #  9     ecut=    50.00 Ry     beta= 0.70
     Davidson diagonalization with overlap

---- Real-time Memory Report at c_bands before calling an iterative solver
           193 MiB given to the printing process from OS
             0 MiB allocation reported by mallinfo(arena+hblkhd)
         58351 MiB available memory on the node where the printing process lives
------------------
     ethr =  1.35E-08,  avg # of iterations =  2.9

     =================== HUBBARD OCCUPATIONS ===================
     ------------------------ ATOM    1 ------------------------
     Tr[ns(  1)] (up, down, total) =   4.98308  4.20932  9.19240
     Atomic magnetic moment for atom   1 =   0.77377
     SPIN  1
     eigenvalues:
       0.992  0.994  0.999  0.999  0.999
     eigenvectors (columns):
      -0.787 -0.617 -0.000  0.000  0.000
      -0.000 -0.000  0.707 -0.000 -0.707
       0.000 -0.000 -0.707 -0.000 -0.707
      -0.000  0.000  0.000  1.000 -0.000
      -0.617  0.787 -0.000 -0.000 -0.000
     occupation matrix ns (before diag.):
       0.993 -0.000 -0.000  0.000 -0.001
      -0.000  0.999  0.000  0.000  0.000
      -0.000  0.000  0.999  0.000  0.000
       0.000  0.000  0.000  0.999 -0.000
      -0.001  0.000  0.000 -0.000  0.993
     SPIN  2
     eigenvalues:
       0.221  0.990  0.999  0.999  1.000
     eigenvectors (columns):
      -0.800 -0.601  0.000  0.000  0.000
      -0.000 -0.000  0.707 -0.000 -0.707
       0.000 -0.000 -0.707 -0.000 -0.707
      -0.000  0.000  0.000  1.000 -0.000
      -0.601  0.800 -0.000 -0.000 -0.000
     occupation matrix ns (before diag.):
       0.499 -0.000 -0.000  0.000 -0.369
      -0.000  0.999  0.000  0.000  0.000
      -0.000  0.000  0.999  0.000  0.000
       0.000  0.000  0.000  0.999 -0.000
      -0.369  0.000  0.000 -0.000  0.713
     ------------------------ ATOM    2 ------------------------
     Tr[ns(  2)] (up, down, total) =   4.98309  4.20949  9.19257
     Atomic magnetic moment for atom   2 =   0.77360
     SPIN  1
     eigenvalues:
       0.992  0.994  0.999  0.999  0.999
     eigenvectors (columns):
       0.787  0.617  0.000 -0.000  0.000
       0.000  0.000 -0.707  0.000 -0.707
       0.000 -0.000 -0.707  0.000  0.707
      -0.000  0.000  0.000  1.000  0.000
      -0.617  0.787 -0.000 -0.000  0.000
     occupation matrix ns (before diag.):
       0.993 -0.000 -0.000  0.000  0.001
      -0.000  0.999 -0.000  0.000  0.000
      -0.000 -0.000  0.999  0.000  0.000
       0.000  0.000  0.000  0.999 -0.000
       0.001  0.000  0.000 -0.000  0.993
     SPIN  2
     eigenvalues:
       0.221  0.990  0.999  0.999  1.000
     eigenvectors (columns):
       0.799  0.601  0.000 -0.000 -0.000
       0.000  0.000  0.707  0.000  0.707
       0.000 -0.000  0.707  0.000 -0.707
      -0.000  0.000 -0.000  1.000 -0.000
      -0.601  0.799  0.000 -0.000 -0.000
     occupation matrix ns (before diag.):
       0.499 -0.000  0.000 -0.000  0.369
      -0.000  0.999 -0.000  0.000  0.000
       0.000 -0.000  0.999  0.000  0.000
      -0.000  0.000  0.000  0.999 -0.000
       0.369  0.000  0.000 -0.000  0.713
     ------------------------ ATOM    3 ------------------------
     Tr[ns(  3)] (up, down, total) =   4.20950  4.98309  9.19259
     Atomic magnetic moment for atom   3 =  -0.77359
     SPIN  1
     eigenvalues:
       0.221  0.990  0.999  0.999  1.000
     eigenvectors (columns):
       0.799  0.601  0.000 -0.000 -0.000
       0.000  0.000  0.707  0.000  0.707
       0.000 -0.000  0.707  0.000 -0.707
      -0.000  0.000 -0.000  1.000 -0.000
      -0.601  0.799  0.000 -0.000 -0.000
     occupation matrix ns (before diag.):
       0.499 -0.000  0.000 -0.000  0.369
      -0.000  0.999 -0.000  0.000  0.000
       0.000 -0.000  0.999  0.000  0.000
      -0.000  0.000  0.000  0.999 -0.000
       0.369  0.000  0.000 -0.000  0.713
     SPIN  2
     eigenvalues:
       0.992  0.994  0.999  0.999  0.999
     eigenvectors (columns):
       0.786  0.618  0.000  0.000  0.000
       0.000  0.000 -0.707  0.000 -0.707
       0.000 -0.000 -0.707  0.000  0.707
      -0.000  0.000  0.000  1.000  0.000
      -0.618  0.786 -0.000 -0.000  0.000
     occupation matrix ns (before diag.):
       0.993 -0.000 -0.000  0.000  0.001
      -0.000  0.999 -0.000  0.000  0.000
      -0.000 -0.000  0.999  0.000  0.000
       0.000  0.000  0.000  0.999 -0.000
       0.001  0.000  0.000 -0.000  0.993
     ------------------------ ATOM    4 ------------------------
     Tr[ns(  4)] (up, down, total) =   4.20937  4.98308  9.19246
     Atomic magnetic moment for atom   4 =  -0.77371
     SPIN  1
     eigenvalues:
       0.221  0.990  0.999  0.999  1.000
     eigenvectors (columns):
      -0.800 -0.601  0.000  0.000  0.000
      -0.000 -0.000  0.707 -0.000 -0.707
       0.000 -0.000 -0.707 -0.000 -0.707
      -0.000  0.000  0.000  1.000 -0.000
      -0.601  0.800 -0.000 -0.000 -0.000
     occupation matrix ns (before diag.):
       0.499 -0.000 -0.000  0.000 -0.369
      -0.000  0.999  0.000  0.000  0.000
      -0.000  0.000  0.999  0.000  0.000
       0.000  0.000  0.000  0.999 -0.000
      -0.369  0.000  0.000 -0.000  0.713
     SPIN  2
     eigenvalues:
       0.992  0.994  0.999  0.999  0.999
     eigenvectors (columns):
      -0.787 -0.617 -0.000  0.000  0.000
      -0.000 -0.000  0.707 -0.000 -0.707
       0.000 -0.000 -0.707 -0.000 -0.707
      -0.000  0.000  0.000  1.000 -0.000
      -0.617  0.787 -0.000 -0.000 -0.000
     occupation matrix ns (before diag.):
       0.993 -0.000 -0.000  0.000 -0.001
      -0.000  0.999  0.000  0.000  0.000
      -0.000  0.000  0.999  0.000  0.000
       0.000  0.000  0.000  0.999 -0.000
      -0.001  0.000  0.000 -0.000  0.993

     Number of occupied Hubbard levels =   36.7700

     HUBBARD ENERGY =    0.1949  (Ry)

     total cpu time spent up to now is       85.4 secs

     total energy              =   -1311.49402980 Ry
     estimated scf accuracy    <       0.00001716 Ry

     total magnetization       =     0.00 Bohr mag/cell
     absolute magnetization    =     3.82 Bohr mag/cell

     iteration # 10     ecut=    50.00 Ry     beta= 0.70
     Davidson diagonalization with overlap

---- Real-time Memory Report at c_bands before calling an iterative solver
           195 MiB given to the printing process from OS
             0 MiB allocation reported by mallinfo(arena+hblkhd)
         58335 MiB available memory on the node where the printing process lives
------------------
     ethr =  1.05E-08,  avg # of iterations =  2.0

     =================== HUBBARD OCCUPATIONS ===================
     ------------------------ ATOM    1 ------------------------
     Tr[ns(  1)] (up, down, total) =   4.98310  4.20936  9.19245
     Atomic magnetic moment for atom   1 =   0.77374
     SPIN  1
     eigenvalues:
       0.992  0.994  0.999  0.999  0.999
     eigenvectors (columns):
      -0.785 -0.620 -0.000  0.000  0.000
      -0.000 -0.000  0.707 -0.000 -0.707
       0.000 -0.000 -0.707 -0.000 -0.707
      -0.000  0.000  0.000  1.000 -0.000
      -0.620  0.785 -0.000 -0.000 -0.000
     occupation matrix ns (before diag.):
       0.993 -0.000 -0.000  0.000 -0.001
      -0.000  0.999  0.000  0.000  0.000
      -0.000  0.000  0.999  0.000  0.000
       0.000  0.000  0.000  0.999 -0.000
      -0.001  0.000  0.000 -0.000  0.993
     SPIN  2
     eigenvalues:
       0.221  0.990  0.999  0.999  1.000
     eigenvectors (columns):
      -0.799 -0.602  0.000  0.000  0.000
      -0.000 -0.000  0.707 -0.000 -0.707
       0.000 -0.000 -0.707 -0.000 -0.707
      -0.000  0.000  0.000  1.000 -0.000
      -0.602  0.799 -0.000 -0.000 -0.000
     occupation matrix ns (before diag.):
       0.500 -0.000 -0.000  0.000 -0.370
      -0.000  0.999  0.000  0.000  0.000
      -0.000  0.000  0.999  0.000  0.000
       0.000  0.000  0.000  0.999 -0.000
      -0.370  0.000  0.000 -0.000  0.712
     ------------------------ ATOM    2 ------------------------
     Tr[ns(  2)] (up, down, total) =   4.98309  4.20916  9.19226
     Atomic magnetic moment for atom   2 =   0.77393
     SPIN  1
     eigenvalues:
       0.992  0.994  0.999  0.999  0.999
     eigenvectors (columns):
       0.786  0.618  0.000 -0.000  0.000
       0.000  0.000 -0.707  0.000 -0.707
       0.000 -0.000 -0.707  0.000  0.707
      -0.000  0.000  0.000  1.000  0.000
      -0.618  0.786 -0.000 -0.000  0.000
     occupation matrix ns (before diag.):
       0.993 -0.000 -0.000  0.000  0.001
      -0.000  0.999 -0.000  0.000  0.000
      -0.000 -0.000  0.999  0.000  0.000
       0.000  0.000  0.000  0.999 -0.000
       0.001  0.000  0.000 -0.000  0.993
     SPIN  2
     eigenvalues:
       0.221  0.990  0.999  0.999  1.000
     eigenvectors (columns):
       0.798  0.602  0.000 -0.000 -0.000
       0.000  0.000  0.707  0.000  0.707
       0.000 -0.000  0.707  0.000 -0.707
      -0.000  0.000 -0.000  1.000 -0.000
      -0.602  0.798  0.000 -0.000 -0.000
     occupation matrix ns (before diag.):
       0.500 -0.000  0.000 -0.000  0.370
      -0.000  0.999 -0.000  0.000  0.000
       0.000 -0.000  0.999  0.000  0.000
      -0.000  0.000  0.000  0.999 -0.000
       0.370  0.000  0.000 -0.000  0.711
     ------------------------ ATOM    3 ------------------------
     Tr[ns(  3)] (up, down, total) =   4.20917  4.98309  9.19226
     Atomic magnetic moment for atom   3 =  -0.77392
     SPIN  1
     eigenvalues:
       0.221  0.990  0.999  0.999  1.000
     eigenvectors (columns):
       0.798  0.602  0.000  0.000  0.000
       0.000  0.000  0.707 -0.000 -0.707
       0.000 -0.000  0.707 -0.000  0.707
      -0.000  0.000 -0.000 -1.000  0.000
      -0.602  0.798  0.000  0.000  0.000
     occupation matrix ns (before diag.):
       0.500 -0.000  0.000 -0.000  0.370
      -0.000  0.999 -0.000  0.000  0.000
       0.000 -0.000  0.999  0.000  0.000
      -0.000  0.000  0.000  0.999 -0.000
       0.370  0.000  0.000 -0.000  0.711
     SPIN  2
     eigenvalues:
       0.992  0.994  0.999  0.999  0.999
     eigenvectors (columns):
       0.786  0.618  0.000 -0.000  0.000
       0.000  0.000 -0.707  0.000 -0.707
       0.000 -0.000 -0.707  0.000  0.707
      -0.000  0.000  0.000  1.000 -0.000
      -0.618  0.786 -0.000 -0.000  0.000
     occupation matrix ns (before diag.):
       0.993 -0.000 -0.000  0.000  0.001
      -0.000  0.999 -0.000  0.000  0.000
      -0.000 -0.000  0.999  0.000  0.000
       0.000  0.000  0.000  0.999 -0.000
       0.001  0.000  0.000 -0.000  0.993
     ------------------------ ATOM    4 ------------------------
     Tr[ns(  4)] (up, down, total) =   4.20933  4.98310  9.19242
     Atomic magnetic moment for atom   4 =  -0.77377
     SPIN  1
     eigenvalues:
       0.221  0.990  0.999  0.999  1.000
     eigenvectors (columns):
      -0.799 -0.602  0.000  0.000  0.000
      -0.000 -0.000  0.707 -0.000 -0.707
       0.000 -0.000 -0.707 -0.000 -0.707
      -0.000  0.000  0.000  1.000 -0.000
      -0.602  0.799 -0.000 -0.000 -0.000
     occupation matrix ns (before diag.):
       0.500 -0.000 -0.000  0.000 -0.370
      -0.000  0.999  0.000  0.000  0.000
      -0.000  0.000  0.999  0.000  0.000
       0.000  0.000  0.000  0.999 -0.000
      -0.370  0.000  0.000 -0.000  0.712
     SPIN  2
     eigenvalues:
       0.992  0.994  0.999  0.999  0.999
     eigenvectors (columns):
      -0.785 -0.619 -0.000  0.000  0.000
      -0.000 -0.000  0.707 -0.000 -0.707
       0.000 -0.000 -0.707 -0.000 -0.707
      -0.000  0.000  0.000  1.000 -0.000
      -0.619  0.785 -0.000 -0.000 -0.000
     occupation matrix ns (before diag.):
       0.993 -0.000 -0.000  0.000 -0.001
      -0.000  0.999  0.000  0.000  0.000
      -0.000  0.000  0.999  0.000  0.000
       0.000  0.000  0.000  0.999 -0.000
      -0.001  0.000  0.000 -0.000  0.993

     Number of occupied Hubbard levels =   36.7694

     HUBBARD ENERGY =    0.1940  (Ry)

     total cpu time spent up to now is       92.3 secs

     total energy              =   -1311.49403420 Ry
     estimated scf accuracy    <       0.00000839 Ry

     total magnetization       =    -0.00 Bohr mag/cell
     absolute magnetization    =     3.82 Bohr mag/cell

     iteration # 11     ecut=    50.00 Ry     beta= 0.70
     Davidson diagonalization with overlap

---- Real-time Memory Report at c_bands before calling an iterative solver
           197 MiB given to the printing process from OS
             0 MiB allocation reported by mallinfo(arena+hblkhd)
         58323 MiB available memory on the node where the printing process lives
------------------
     ethr =  5.12E-09,  avg # of iterations =  2.0

     =================== HUBBARD OCCUPATIONS ===================
     ------------------------ ATOM    1 ------------------------
     Tr[ns(  1)] (up, down, total) =   4.98310  4.20908  9.19218
     Atomic magnetic moment for atom   1 =   0.77403
     SPIN  1
     eigenvalues:
       0.992  0.994  0.999  0.999  0.999
     eigenvectors (columns):
      -0.786 -0.618 -0.000  0.000  0.000
      -0.000 -0.000  0.707 -0.000 -0.707
       0.000 -0.000 -0.707 -0.000 -0.707
      -0.000  0.000  0.000  1.000 -0.000
      -0.618  0.786 -0.000 -0.000 -0.000
     occupation matrix ns (before diag.):
       0.993 -0.000 -0.000  0.000 -0.001
      -0.000  0.999  0.000  0.000  0.000
      -0.000  0.000  0.999  0.000  0.000
       0.000  0.000  0.000  0.999 -0.000
      -0.001  0.000  0.000 -0.000  0.993
     SPIN  2
     eigenvalues:
       0.221  0.990  0.999  0.999  1.000
     eigenvectors (columns):
      -0.797 -0.604  0.000  0.000  0.000
      -0.000 -0.000  0.707 -0.000 -0.707
       0.000 -0.000 -0.707 -0.000 -0.707
      -0.000  0.000 -0.000  1.000 -0.000
      -0.604  0.797 -0.000 -0.000 -0.000
     occupation matrix ns (before diag.):
       0.502 -0.000 -0.000  0.000 -0.371
      -0.000  0.999  0.000  0.000  0.000
      -0.000  0.000  0.999  0.000  0.000
       0.000  0.000  0.000  0.999 -0.000
      -0.371  0.000  0.000 -0.000  0.709
     ------------------------ ATOM    2 ------------------------
     Tr[ns(  2)] (up, down, total) =   4.98311  4.20922  9.19233
     Atomic magnetic moment for atom   2 =   0.77389
     SPIN  1
     eigenvalues:
       0.992  0.994  0.999  0.999  0.999
     eigenvectors (columns):
       0.786  0.619  0.000  0.000  0.000
       0.000  0.000 -0.707  0.000 -0.707
       0.000 -0.000 -0.707  0.000  0.707
      -0.000  0.000  0.000  1.000  0.000
      -0.619  0.786 -0.000 -0.000  0.000
     occupation matrix ns (before diag.):
       0.993 -0.000 -0.000  0.000  0.001
      -0.000  0.999 -0.000  0.000  0.000
      -0.000 -0.000  0.999  0.000  0.000
       0.000  0.000  0.000  0.999 -0.000
       0.001  0.000  0.000 -0.000  0.993
     SPIN  2
     eigenvalues:
       0.221  0.990  0.999  0.999  1.000
     eigenvectors (columns):
       0.797  0.604  0.000 -0.000 -0.000
       0.000  0.000  0.707  0.000  0.707
       0.000 -0.000  0.707  0.000 -0.707
      -0.000  0.000 -0.000  1.000 -0.000
      -0.604  0.797  0.000 -0.000 -0.000
     occupation matrix ns (before diag.):
       0.502 -0.000  0.000 -0.000  0.371
      -0.000  0.999 -0.000  0.000  0.000
       0.000 -0.000  0.999  0.000  0.000
      -0.000  0.000  0.000  0.999 -0.000
       0.371  0.000  0.000 -0.000  0.709
     ------------------------ ATOM    3 ------------------------
     Tr[ns(  3)] (up, down, total) =   4.20921  4.98311  9.19232
     Atomic magnetic moment for atom   3 =  -0.77390
     SPIN  1
     eigenvalues:
       0.221  0.990  0.999  0.999  1.000
     eigenvectors (columns):
       0.797  0.604  0.000 -0.000 -0.000
       0.000  0.000  0.707  0.000  0.707
       0.000 -0.000  0.707  0.000 -0.707
      -0.000  0.000 -0.000  1.000 -0.000
      -0.604  0.797  0.000 -0.000 -0.000
     occupation matrix ns (before diag.):
       0.502 -0.000  0.000 -0.000  0.371
      -0.000  0.999 -0.000  0.000  0.000
       0.000 -0.000  0.999  0.000  0.000
      -0.000  0.000  0.000  0.999 -0.000
       0.371  0.000  0.000 -0.000  0.709
     SPIN  2
     eigenvalues:
       0.992  0.994  0.999  0.999  0.999
     eigenvectors (columns):
       0.785  0.619  0.000 -0.000  0.000
       0.000  0.000 -0.707  0.000 -0.707
       0.000 -0.000 -0.707  0.000  0.707
      -0.000  0.000  0.000  1.000  0.000
      -0.619  0.785 -0.000 -0.000  0.000
     occupation matrix ns (before diag.):
       0.993 -0.000 -0.000  0.000  0.001
      -0.000  0.999 -0.000  0.000  0.000
      -0.000 -0.000  0.999  0.000  0.000
       0.000  0.000  0.000  0.999 -0.000
       0.001  0.000  0.000 -0.000  0.993
     ------------------------ ATOM    4 ------------------------
     Tr[ns(  4)] (up, down, total) =   4.20913  4.98311  9.19223
     Atomic magnetic moment for atom   4 =  -0.77398
     SPIN  1
     eigenvalues:
       0.221  0.990  0.999  0.999  1.000
     eigenvectors (columns):
      -0.797 -0.604  0.000  0.000  0.000
      -0.000 -0.000  0.707 -0.000 -0.707
       0.000 -0.000 -0.707 -0.000 -0.707
      -0.000  0.000  0.000  1.000 -0.000
      -0.604  0.797 -0.000 -0.000 -0.000
     occupation matrix ns (before diag.):
       0.502 -0.000 -0.000  0.000 -0.371
      -0.000  0.999  0.000  0.000  0.000
      -0.000  0.000  0.999  0.000  0.000
       0.000  0.000  0.000  0.999 -0.000
      -0.371  0.000  0.000 -0.000  0.709
     SPIN  2
     eigenvalues:
       0.992  0.994  0.999  0.999  0.999
     eigenvectors (columns):
      -0.786 -0.618 -0.000  0.000  0.000
      -0.000 -0.000  0.707 -0.000 -0.707
       0.000 -0.000 -0.707 -0.000 -0.707
      -0.000  0.000  0.000  1.000 -0.000
      -0.618  0.786 -0.000 -0.000 -0.000
     occupation matrix ns (before diag.):
       0.993 -0.000 -0.000  0.000 -0.001
      -0.000  0.999  0.000  0.000  0.000
      -0.000  0.000  0.999  0.000  0.000
       0.000  0.000  0.000  0.999 -0.000
      -0.001  0.000  0.000 -0.000  0.993

     Number of occupied Hubbard levels =   36.7691

     HUBBARD ENERGY =    0.1944  (Ry)

     total cpu time spent up to now is       99.6 secs

     total energy              =   -1311.49403433 Ry
     estimated scf accuracy    <       0.00000508 Ry

     total magnetization       =     0.00 Bohr mag/cell
     absolute magnetization    =     3.82 Bohr mag/cell

     iteration # 12     ecut=    50.00 Ry     beta= 0.70
     Davidson diagonalization with overlap

---- Real-time Memory Report at c_bands before calling an iterative solver
           198 MiB given to the printing process from OS
             0 MiB allocation reported by mallinfo(arena+hblkhd)
         58316 MiB available memory on the node where the printing process lives
------------------
     ethr =  3.10E-09,  avg # of iterations =  2.4

     =================== HUBBARD OCCUPATIONS ===================
     ------------------------ ATOM    1 ------------------------
     Tr[ns(  1)] (up, down, total) =   4.98311  4.20944  9.19255
     Atomic magnetic moment for atom   1 =   0.77367
     SPIN  1
     eigenvalues:
       0.992  0.994  0.999  0.999  0.999
     eigenvectors (columns):
      -0.788 -0.616 -0.000  0.000  0.000
      -0.000 -0.000  0.707 -0.000 -0.707
       0.000 -0.000 -0.707 -0.000 -0.707
      -0.000  0.000  0.000  1.000 -0.000
      -0.616  0.788 -0.000 -0.000 -0.000
     occupation matrix ns (before diag.):
       0.993 -0.000 -0.000  0.000 -0.001
      -0.000  0.999  0.000  0.000  0.000
      -0.000  0.000  0.999  0.000  0.000
       0.000  0.000  0.000  0.999 -0.000
      -0.001  0.000  0.000 -0.000  0.993
     SPIN  2
     eigenvalues:
       0.221  0.990  0.999  0.999  1.000
     eigenvectors (columns):
      -0.794 -0.608  0.000  0.000  0.000
      -0.000 -0.000  0.707 -0.000 -0.707
       0.000 -0.000 -0.707 -0.000 -0.707
      -0.000  0.000  0.000  1.000 -0.000
      -0.608  0.794 -0.000 -0.000 -0.000
     occupation matrix ns (before diag.):
       0.505 -0.000 -0.000  0.000 -0.371
      -0.000  0.999  0.000  0.000  0.000
      -0.000  0.000  0.999  0.000  0.000
       0.000  0.000  0.000  0.999 -0.000
      -0.371  0.000  0.000 -0.000  0.706
     ------------------------ ATOM    2 ------------------------
     Tr[ns(  2)] (up, down, total) =   4.98311  4.20919  9.19230
     Atomic magnetic moment for atom   2 =   0.77392
     SPIN  1
     eigenvalues:
       0.992  0.994  0.999  0.999  0.999
     eigenvectors (columns):
       0.788  0.616  0.000 -0.000  0.000
       0.000  0.000 -0.707  0.000 -0.707
       0.000 -0.000 -0.707  0.000  0.707
      -0.000  0.000  0.000  1.000  0.000
      -0.616  0.788 -0.000 -0.000  0.000
     occupation matrix ns (before diag.):
       0.993 -0.000 -0.000  0.000  0.001
      -0.000  0.999 -0.000  0.000  0.000
      -0.000 -0.000  0.999  0.000  0.000
       0.000  0.000  0.000  0.999 -0.000
       0.001  0.000  0.000 -0.000  0.993
     SPIN  2
     eigenvalues:
       0.221  0.990  0.999  0.999  1.000
     eigenvectors (columns):
       0.794  0.608  0.000 -0.000 -0.000
       0.000  0.000  0.707  0.000  0.707
       0.000 -0.000  0.707  0.000 -0.707
      -0.000  0.000 -0.000  1.000  0.000
      -0.608  0.794  0.000 -0.000 -0.000
     occupation matrix ns (before diag.):
       0.505 -0.000  0.000 -0.000  0.371
      -0.000  0.999 -0.000  0.000  0.000
       0.000 -0.000  0.999  0.000  0.000
      -0.000  0.000  0.000  0.999 -0.000
       0.371  0.000  0.000 -0.000  0.706
     ------------------------ ATOM    3 ------------------------
     Tr[ns(  3)] (up, down, total) =   4.20928  4.98310  9.19238
     Atomic magnetic moment for atom   3 =  -0.77382
     SPIN  1
     eigenvalues:
       0.221  0.990  0.999  0.999  1.000
     eigenvectors (columns):
       0.794  0.608  0.000 -0.000 -0.000
       0.000  0.000  0.707  0.000  0.707
       0.000 -0.000  0.707  0.000 -0.707
      -0.000  0.000 -0.000  1.000 -0.000
      -0.608  0.794  0.000 -0.000 -0.000
     occupation matrix ns (before diag.):
       0.505 -0.000  0.000 -0.000  0.371
      -0.000  0.999 -0.000  0.000  0.000
       0.000 -0.000  0.999  0.000  0.000
      -0.000  0.000  0.000  0.999 -0.000
       0.371  0.000  0.000 -0.000  0.706
     SPIN  2
     eigenvalues:
       0.992  0.994  0.999  0.999  0.999
     eigenvectors (columns):
       0.789  0.615  0.000 -0.000  0.000
       0.000  0.000 -0.707  0.000 -0.707
       0.000 -0.000 -0.707  0.000  0.707
      -0.000  0.000  0.000  1.000  0.000
      -0.615  0.789 -0.000 -0.000  0.000
     occupation matrix ns (before diag.):
       0.993 -0.000 -0.000  0.000  0.001
      -0.000  0.999 -0.000  0.000  0.000
      -0.000 -0.000  0.999  0.000  0.000
       0.000  0.000  0.000  0.999 -0.000
       0.001  0.000  0.000 -0.000  0.993
     ------------------------ ATOM    4 ------------------------
     Tr[ns(  4)] (up, down, total) =   4.20912  4.98311  9.19223
     Atomic magnetic moment for atom   4 =  -0.77399
     SPIN  1
     eigenvalues:
       0.221  0.990  0.999  0.999  1.000
     eigenvectors (columns):
      -0.794 -0.608  0.000  0.000  0.000
      -0.000 -0.000  0.707 -0.000 -0.707
       0.000 -0.000 -0.707 -0.000 -0.707
      -0.000  0.000  0.000  1.000 -0.000
      -0.608  0.794 -0.000 -0.000 -0.000
     occupation matrix ns (before diag.):
       0.505 -0.000 -0.000  0.000 -0.371
      -0.000  0.999  0.000  0.000  0.000
      -0.000  0.000  0.999  0.000  0.000
       0.000  0.000  0.000  0.999 -0.000
      -0.371  0.000  0.000 -0.000  0.706
     SPIN  2
     eigenvalues:
       0.992  0.994  0.999  0.999  0.999
     eigenvectors (columns):
      -0.788 -0.615 -0.000  0.000  0.000
      -0.000 -0.000  0.707 -0.000 -0.707
       0.000 -0.000 -0.707 -0.000 -0.707
      -0.000  0.000  0.000  1.000 -0.000
      -0.615  0.788 -0.000 -0.000 -0.000
     occupation matrix ns (before diag.):
       0.993 -0.000 -0.000  0.000 -0.001
      -0.000  0.999  0.000  0.000  0.000
      -0.000  0.000  0.999  0.000  0.000
       0.000  0.000  0.000  0.999 -0.000
      -0.001  0.000  0.000 -0.000  0.993

     Number of occupied Hubbard levels =   36.7695

     HUBBARD ENERGY =    0.1944  (Ry)

     total cpu time spent up to now is      107.0 secs

     total energy              =   -1311.49405740 Ry
     estimated scf accuracy    <       0.00000105 Ry

     total magnetization       =    -0.00 Bohr mag/cell
     absolute magnetization    =     3.82 Bohr mag/cell

     iteration # 13     ecut=    50.00 Ry     beta= 0.70
     Davidson diagonalization with overlap

---- Real-time Memory Report at c_bands before calling an iterative solver
           200 MiB given to the printing process from OS
             0 MiB allocation reported by mallinfo(arena+hblkhd)
         58308 MiB available memory on the node where the printing process lives
------------------
     ethr =  6.40E-10,  avg # of iterations =  4.0

     =================== HUBBARD OCCUPATIONS ===================
     ------------------------ ATOM    1 ------------------------
     Tr[ns(  1)] (up, down, total) =   4.98311  4.20917  9.19228
     Atomic magnetic moment for atom   1 =   0.77394
     SPIN  1
     eigenvalues:
       0.992  0.994  0.999  0.999  0.999
     eigenvectors (columns):
      -0.789 -0.615 -0.000  0.000  0.000
      -0.000 -0.000  0.707 -0.000 -0.707
       0.000 -0.000 -0.707 -0.000 -0.707
      -0.000  0.000  0.000  1.000 -0.000
      -0.615  0.789 -0.000 -0.000 -0.000
     occupation matrix ns (before diag.):
       0.993 -0.000 -0.000  0.000 -0.001
      -0.000  0.999  0.000  0.000  0.000
      -0.000  0.000  0.999  0.000  0.000
       0.000  0.000  0.000  0.999 -0.000
      -0.001  0.000  0.000 -0.000  0.993
     SPIN  2
     eigenvalues:
       0.221  0.990  0.999  0.999  1.000
     eigenvectors (columns):
      -0.793 -0.609  0.000  0.000  0.000
      -0.000 -0.000  0.707 -0.000 -0.707
       0.000 -0.000 -0.707 -0.000 -0.707
      -0.000  0.000  0.000  1.000 -0.000
      -0.609  0.793 -0.000 -0.000 -0.000
     occupation matrix ns (before diag.):
       0.506 -0.000 -0.000  0.000 -0.372
      -0.000  0.999  0.000  0.000  0.000
      -0.000  0.000  0.999  0.000  0.000
       0.000  0.000  0.000  0.999 -0.000
      -0.372  0.000  0.000 -0.000  0.705
     ------------------------ ATOM    2 ------------------------
     Tr[ns(  2)] (up, down, total) =   4.98311  4.20928  9.19239
     Atomic magnetic moment for atom   2 =   0.77383
     SPIN  1
     eigenvalues:
       0.992  0.994  0.999  0.999  0.999
     eigenvectors (columns):
       0.789  0.614  0.000 -0.000  0.000
       0.000  0.000 -0.707  0.000 -0.707
       0.000 -0.000 -0.707  0.000  0.707
      -0.000  0.000  0.000  1.000  0.000
      -0.614  0.789 -0.000 -0.000  0.000
     occupation matrix ns (before diag.):
       0.993 -0.000 -0.000  0.000  0.001
      -0.000  0.999 -0.000  0.000  0.000
      -0.000 -0.000  0.999  0.000  0.000
       0.000  0.000  0.000  0.999 -0.000
       0.001  0.000  0.000 -0.000  0.993
     SPIN  2
     eigenvalues:
       0.221  0.990  0.999  0.999  1.000
     eigenvectors (columns):
       0.793  0.609  0.000  0.000  0.000
       0.000  0.000  0.707 -0.000 -0.707
       0.000 -0.000  0.707 -0.000  0.707
      -0.000  0.000 -0.000 -1.000 -0.000
      -0.609  0.793  0.000  0.000  0.000
     occupation matrix ns (before diag.):
       0.506 -0.000  0.000 -0.000  0.372
      -0.000  0.999 -0.000  0.000  0.000
       0.000 -0.000  0.999  0.000  0.000
      -0.000  0.000  0.000  0.999 -0.000
       0.372  0.000  0.000 -0.000  0.705
     ------------------------ ATOM    3 ------------------------
     Tr[ns(  3)] (up, down, total) =   4.20922  4.98311  9.19233
     Atomic magnetic moment for atom   3 =  -0.77389
     SPIN  1
     eigenvalues:
       0.221  0.990  0.999  0.999  1.000
     eigenvectors (columns):
       0.793  0.609  0.000 -0.000 -0.000
       0.000  0.000  0.707  0.000  0.707
       0.000 -0.000  0.707  0.000 -0.707
      -0.000  0.000 -0.000  1.000 -0.000
      -0.609  0.793  0.000 -0.000 -0.000
     occupation matrix ns (before diag.):
       0.506 -0.000  0.000 -0.000  0.372
      -0.000  0.999 -0.000  0.000  0.000
       0.000 -0.000  0.999  0.000  0.000
      -0.000  0.000  0.000  0.999 -0.000
       0.372  0.000  0.000 -0.000  0.705
     SPIN  2
     eigenvalues:
       0.992  0.994  0.999  0.999  0.999
     eigenvectors (columns):
       0.789  0.615  0.000 -0.000  0.000
       0.000  0.000 -0.707  0.000 -0.707
       0.000 -0.000 -0.707  0.000  0.707
      -0.000  0.000  0.000  1.000  0.000
      -0.615  0.789 -0.000 -0.000  0.000
     occupation matrix ns (before diag.):
       0.993 -0.000 -0.000  0.000  0.001
      -0.000  0.999 -0.000  0.000  0.000
      -0.000 -0.000  0.999  0.000  0.000
       0.000  0.000  0.000  0.999 -0.000
       0.001  0.000  0.000 -0.000  0.993
     ------------------------ ATOM    4 ------------------------
     Tr[ns(  4)] (up, down, total) =   4.20936  4.98311  9.19247
     Atomic magnetic moment for atom   4 =  -0.77375
     SPIN  1
     eigenvalues:
       0.221  0.990  0.999  0.999  1.000
     eigenvectors (columns):
      -0.793 -0.609  0.000  0.000  0.000
      -0.000 -0.000  0.707 -0.000 -0.707
       0.000 -0.000 -0.707 -0.000 -0.707
      -0.000  0.000  0.000  1.000 -0.000
      -0.609  0.793 -0.000 -0.000 -0.000
     occupation matrix ns (before diag.):
       0.506 -0.000 -0.000  0.000 -0.372
      -0.000  0.999  0.000  0.000  0.000
      -0.000  0.000  0.999  0.000  0.000
       0.000  0.000  0.000  0.999 -0.000
      -0.372  0.000  0.000 -0.000  0.705
     SPIN  2
     eigenvalues:
       0.992  0.994  0.999  0.999  0.999
     eigenvectors (columns):
      -0.789 -0.615 -0.000  0.000  0.000
      -0.000 -0.000  0.707 -0.000 -0.707
       0.000 -0.000 -0.707 -0.000 -0.707
      -0.000  0.000  0.000  1.000 -0.000
      -0.615  0.789 -0.000 -0.000 -0.000
     occupation matrix ns (before diag.):
       0.993 -0.000 -0.000  0.000 -0.001
      -0.000  0.999  0.000  0.000  0.000
      -0.000  0.000  0.999  0.000  0.000
       0.000  0.000  0.000  0.999 -0.000
      -0.001  0.000  0.000 -0.000  0.993

     Number of occupied Hubbard levels =   36.7695

     HUBBARD ENERGY =    0.1944  (Ry)
 
     Magnetic moment per site  (integrated on atomic sphere of radius R)
     atom   1 (R=0.133)  charge=  8.3116  magn=  0.7758
     atom   2 (R=0.133)  charge=  8.3118  magn=  0.7757
     atom   3 (R=0.133)  charge=  8.3117  magn= -0.7758
     atom   4 (R=0.133)  charge=  8.3120  magn= -0.7756
     atom   5 (R=0.201)  charge=  7.6399  magn= -0.0000
     atom   6 (R=0.201)  charge=  7.6399  magn= -0.0000
     atom   7 (R=0.201)  charge=  7.6399  magn= -0.0000
     atom   8 (R=0.201)  charge=  7.6399  magn= -0.0000
     atom   9 (R=0.133)  charge=  6.2907  magn= -0.0000
     atom  10 (R=0.133)  charge=  6.2907  magn= -0.0000
     atom  11 (R=0.133)  charge=  6.2863  magn=  0.0460
     atom  12 (R=0.133)  charge=  6.2863  magn=  0.0460
     atom  13 (R=0.133)  charge=  6.2863  magn= -0.0460
     atom  14 (R=0.133)  charge=  6.2863  magn= -0.0460
     atom  15 (R=0.133)  charge=  6.2907  magn= -0.0000
     atom  16 (R=0.133)  charge=  6.2907  magn= -0.0000
     atom  17 (R=0.133)  charge=  6.2863  magn=  0.0460
     atom  18 (R=0.133)  charge=  6.2863  magn=  0.0460
     atom  19 (R=0.133)  charge=  6.2862  magn= -0.0460
     atom  20 (R=0.133)  charge=  6.2862  magn= -0.0460

     total cpu time spent up to now is      115.0 secs

     End of self-consistent calculation

 ------ SPIN UP ------------


          k = 0.0833 0.0833 0.0622 ( 10859 PWs)   bands (ev):

   -23.0535 -23.0285 -23.0265 -23.0094 -17.7086 -17.5755 -17.4151 -17.4015
   -17.3045 -17.0791 -17.0580 -17.0466 -17.0440 -16.9658 -16.9640 -16.8688
    -6.7268  -6.6804  -6.6719  -6.5839  -6.5823  -6.5668  -6.5486  -6.5472
    -6.5109  -6.5020  -6.5019  -6.4426  -2.9983  -2.9214  -2.1671  -2.0099
    -1.8761  -1.8731  -1.5382  -1.4279  -1.4273  -1.0565  -1.0561  -1.0463
    -0.9530  -0.9494  -0.9074  -0.5373  -0.4812  -0.4708  -0.4652  -0.2578
    -0.1272   0.0955   0.1187   0.2981   0.3817   0.7717   0.9768   1.3521
     1.3965   1.4245   1.8259   1.8560   1.8750   1.8804   1.8995   1.9006
     1.9990   2.0304   2.0321   2.0883   2.0999   2.1137   2.1195   2.1922
     2.2035   2.3070   2.3114   2.5292   2.5470   2.5598   2.5851   2.6247
     2.6693   3.4593   6.4564   6.7174   8.8610  11.5788  12.4694  12.6330
    12.6937  12.7262  12.7610  12.8843  12.9750  13.6498  13.8553  14.1835
    14.2309  14.3725

     occupation numbers 
     1.0000   1.0000   1.0000   1.0000   1.0000   1.0000   1.0000   1.0000
     1.0000   1.0000   1.0000   1.0000   1.0000   1.0000   1.0000   1.0000
     1.0000   1.0000   1.0000   1.0000   1.0000   1.0000   1.0000   1.0000
     1.0000   1.0000   1.0000   1.0000   1.0000   1.0000   1.0000   1.0000
     1.0000   1.0000   1.0000   1.0000   1.0000   1.0000   1.0000   1.0000
     1.0000   1.0000   1.0000   1.0000   1.0000   1.0000   1.0000   1.0000
     1.0000   1.0000   1.0000   1.0000   1.0000   1.0000   1.0000   1.0000
     1.0000   1.0000   1.0000   1.0000   1.0000   1.0000   1.0000   1.0000
     1.0000   1.0000   1.0000   1.0000   1.0000   1.0000   1.0000   1.0000
     1.0000   1.0000   1.0000   1.0000   1.0000   1.0000   1.0000   1.0000
     1.0000   1.0000   0.0000   0.0000   0.0000   0.0000   0.0000   0.0000
     0.0000   0.0000   0.0000   0.0000   0.0000   0.0000   0.0000   0.0000
     0.0000   0.0000

          k = 0.0833 0.0833 0.1866 ( 10843 PWs)   bands (ev):

   -23.0501 -23.0318 -23.0241 -23.0116 -17.6817 -17.5543 -17.4845 -17.4266
   -17.2560 -17.0772 -17.0577 -17.0522 -17.0441 -16.9659 -16.9644 -16.8680
    -6.6945  -6.6671  -6.6555  -6.5965  -6.5956  -6.5601  -6.5454  -6.5409
    -6.5140  -6.5088  -6.5077  -6.4811  -2.9571  -2.8662  -2.0937  -1.9157
    -1.8680  -1.8639  -1.5307  -1.3985  -1.3973  -1.2506  -1.0603  -1.0561
    -1.0302  -0.9997  -0.9828  -0.5765  -0.5393  -0.5128  -0.4651  -0.4539
    -0.2595   0.1550   0.1882   0.3183   0.3668   1.0053   1.1000   1.4444
     1.4815   1.5151   1.8247   1.8456   1.8646   1.8710   1.9046   1.9153
     1.9716   1.9936   2.0125   2.0348   2.0963   2.1188   2.1207   2.1805
     2.2047   2.3047   2.3143   2.4670   2.4991   2.5531   2.6256   2.6309
     2.6938   3.4684   6.4030   6.7363   9.1078  10.9379  12.4878  12.6440
    12.8543  12.9016  12.9575  13.0676  13.1166  13.6082  13.7221  13.9177
    14.2393  14.4513

     occupation numbers 
     1.0000   1.0000   1.0000   1.0000   1.0000   1.0000   1.0000   1.0000
     1.0000   1.0000   1.0000   1.0000   1.0000   1.0000   1.0000   1.0000
     1.0000   1.0000   1.0000   1.0000   1.0000   1.0000   1.0000   1.0000
     1.0000   1.0000   1.0000   1.0000   1.0000   1.0000   1.0000   1.0000
     1.0000   1.0000   1.0000   1.0000   1.0000   1.0000   1.0000   1.0000
     1.0000   1.0000   1.0000   1.0000   1.0000   1.0000   1.0000   1.0000
     1.0000   1.0000   1.0000   1.0000   1.0000   1.0000   1.0000   1.0000
     1.0000   1.0000   1.0000   1.0000   1.0000   1.0000   1.0000   1.0000
     1.0000   1.0000   1.0000   1.0000   1.0000   1.0000   1.0000   1.0000
     1.0000   1.0000   1.0000   1.0000   1.0000   1.0000   1.0000   1.0000
     1.0000   1.0000  -0.0000   0.0000   0.0000   0.0000   0.0000   0.0000
     0.0000   0.0000   0.0000   0.0000   0.0000   0.0000   0.0000   0.0000
     0.0000   0.0000

          k = 0.0833 0.0833 0.3109 ( 10871 PWs)   bands (ev):

   -23.0444 -23.0377 -23.0200 -23.0155 -17.6326 -17.5589 -17.5178 -17.4669
   -17.2236 -17.0754 -17.0596 -17.0574 -17.0434 -16.9660 -16.9648 -16.8672
    -6.6505  -6.6445  -6.6191  -6.6187  -6.6144  -6.5494  -6.5461  -6.5429
    -6.5301  -6.5185  -6.5178  -6.5175  -2.9161  -2.8112  -1.9567  -1.8602
    -1.8599  -1.6944  -1.5230  -1.5097  -1.3628  -1.3617  -1.3171  -1.0713
    -1.0627  -1.0560  -1.0503  -0.6933  -0.6094  -0.5504  -0.4650  -0.4646
    -0.2605   0.2214   0.2369   0.3177   0.3401   1.0441   1.3156   1.5807
     1.6032   1.6392   1.7618   1.7797   1.8717   1.8807   1.8923   1.9026
     1.9344   1.9647   1.9873   1.9878   2.0920   2.1138   2.1246   2.1698
     2.2229   2.3160   2.3341   2.3908   2.4263   2.5537   2.6256   2.6616
     2.7356   3.4771   6.3471   6.7541   9.5772  10.2203  12.5152  12.6146
    13.0882  13.1359  13.1794  13.2453  13.3218  13.3776  13.4830  13.5829
    14.5253  14.6265

     occupation numbers 
     1.0000   1.0000   1.0000   1.0000   1.0000   1.0000   1.0000   1.0000
     1.0000   1.0000   1.0000   1.0000   1.0000   1.0000   1.0000   1.0000
     1.0000   1.0000   1.0000   1.0000   1.0000   1.0000   1.0000   1.0000
     1.0000   1.0000   1.0000   1.0000   1.0000   1.0000   1.0000   1.0000
     1.0000   1.0000   1.0000   1.0000   1.0000   1.0000   1.0000   1.0000
     1.0000   1.0000   1.0000   1.0000   1.0000   1.0000   1.0000   1.0000
     1.0000   1.0000   1.0000   1.0000   1.0000   1.0000   1.0000   1.0000
     1.0000   1.0000   1.0000   1.0000   1.0000   1.0000   1.0000   1.0000
     1.0000   1.0000   1.0000   1.0000   1.0000   1.0000   1.0000   1.0000
     1.0000   1.0000   1.0000   1.0000   1.0000   1.0000   1.0000   1.0000
     1.0000   1.0000  -0.0375   0.0000   0.0000   0.0000   0.0000   0.0000
     0.0000   0.0000   0.0000   0.0000   0.0000   0.0000   0.0000   0.0000
     0.0000   0.0000

          k = 0.0833 0.2500 0.0622 ( 10833 PWs)   bands (ev):

   -23.0491 -23.0291 -23.0257 -23.0119 -17.6942 -17.5970 -17.4135 -17.4047
   -17.2772 -17.1144 -17.0535 -17.0390 -17.0359 -16.9813 -16.9511 -16.8810
    -6.7023  -6.6576  -6.6224  -6.5899  -6.5737  -6.5625  -6.5520  -6.5366
    -6.5336  -6.4978  -6.4938  -6.4506  -2.9715  -2.9091  -2.1206  -1.9423
    -1.8880  -1.8791  -1.4713  -1.4517  -1.4442  -1.1238  -1.0016  -0.9883
    -0.9537  -0.9500  -0.8488  -0.7388  -0.5616  -0.5271  -0.4937  -0.2899
    -0.2120  -0.1219   0.0049   0.1960   0.7234   0.9839   1.1679   1.3411
     1.4163   1.4580   1.7945   1.8203   1.8446   1.8679   1.8909   1.9076
     1.9427   1.9559   2.0357   2.0506   2.0910   2.1238   2.1499   2.2161
     2.2636   2.3166   2.3303   2.4484   2.4600   2.5153   2.5376   2.6135
     2.7782   3.2315   6.4596   6.6397   9.3073  11.7673  11.9451  12.5656
    12.9003  12.9390  13.0731  13.1397  13.1835  13.3864  14.0556  14.1232
    14.3328  14.4903

     occupation numbers 
     1.0000   1.0000   1.0000   1.0000   1.0000   1.0000   1.0000   1.0000
     1.0000   1.0000   1.0000   1.0000   1.0000   1.0000   1.0000   1.0000
     1.0000   1.0000   1.0000   1.0000   1.0000   1.0000   1.0000   1.0000
     1.0000   1.0000   1.0000   1.0000   1.0000   1.0000   1.0000   1.0000
     1.0000   1.0000   1.0000   1.0000   1.0000   1.0000   1.0000   1.0000
     1.0000   1.0000   1.0000   1.0000   1.0000   1.0000   1.0000   1.0000
     1.0000   1.0000   1.0000   1.0000   1.0000   1.0000   1.0000   1.0000
     1.0000   1.0000   1.0000   1.0000   1.0000   1.0000   1.0000   1.0000
     1.0000   1.0000   1.0000   1.0000   1.0000   1.0000   1.0000   1.0000
     1.0000   1.0000   1.0000   1.0000   1.0000   1.0000   1.0000   1.0000
     1.0000   1.0000   0.0000   0.0000   0.0000   0.0000   0.0000   0.0000
     0.0000   0.0000   0.0000   0.0000   0.0000   0.0000   0.0000   0.0000
     0.0000   0.0000

          k = 0.0833 0.2500 0.1866 ( 10846 PWs)   bands (ev):

   -23.0460 -23.0289 -23.0267 -23.0141 -17.6673 -17.5744 -17.4752 -17.4340
   -17.2376 -17.1098 -17.0533 -17.0433 -17.0364 -16.9806 -16.9513 -16.8805
    -6.6782  -6.6465  -6.6064  -6.5915  -6.5778  -6.5746  -6.5506  -6.5387
    -6.5336  -6.4998  -6.4973  -6.4795  -2.9267  -2.8507  -2.0487  -1.8893
    -1.8730  -1.8461  -1.4722  -1.4146  -1.4071  -1.1983  -1.1237  -1.0369
    -1.0119  -0.9802  -0.9127  -0.7939  -0.6220  -0.5614  -0.5518  -0.4989
    -0.2507  -0.0819   0.0797   0.2581   0.7510   1.1726   1.2665   1.4200
     1.4560   1.5542   1.7617   1.7878   1.8404   1.8659   1.8763   1.8959
     1.9268   1.9476   1.9976   2.0344   2.0527   2.1277   2.1737   2.2560
     2.2793   2.3185   2.3396   2.3918   2.4353   2.4901   2.5387   2.6609
     2.7849   3.2439   6.4194   6.6512   9.5229  11.1795  11.9958  12.4293
    13.0581  13.1719  13.2249  13.2964  13.3430  13.4302  13.9017  14.0168
    14.3218  14.5469

     occupation numbers 
     1.0000   1.0000   1.0000   1.0000   1.0000   1.0000   1.0000   1.0000
     1.0000   1.0000   1.0000   1.0000   1.0000   1.0000   1.0000   1.0000
     1.0000   1.0000   1.0000   1.0000   1.0000   1.0000   1.0000   1.0000
     1.0000   1.0000   1.0000   1.0000   1.0000   1.0000   1.0000   1.0000
     1.0000   1.0000   1.0000   1.0000   1.0000   1.0000   1.0000   1.0000
     1.0000   1.0000   1.0000   1.0000   1.0000   1.0000   1.0000   1.0000
     1.0000   1.0000   1.0000   1.0000   1.0000   1.0000   1.0000   1.0000
     1.0000   1.0000   1.0000   1.0000   1.0000   1.0000   1.0000   1.0000
     1.0000   1.0000   1.0000   1.0000   1.0000   1.0000   1.0000   1.0000
     1.0000   1.0000   1.0000   1.0000   1.0000   1.0000   1.0000   1.0000
     1.0000   1.0000   0.0000   0.0000   0.0000   0.0000   0.0000   0.0000
     0.0000   0.0000   0.0000   0.0000   0.0000   0.0000   0.0000   0.0000
     0.0000   0.0000

          k = 0.0833 0.2500 0.3109 ( 10861 PWs)   bands (ev):

   -23.0406 -23.0344 -23.0226 -23.0180 -17.6185 -17.5468 -17.5347 -17.4799
   -17.2093 -17.1058 -17.0529 -17.0491 -17.0362 -16.9799 -16.9516 -16.8800
    -6.6400  -6.6277  -6.6070  -6.6036  -6.5744  -6.5666  -6.5553  -6.5373
    -6.5368  -6.5248  -6.5019  -6.5010  -2.8818  -2.7909  -1.9136  -1.8737
    -1.8645  -1.6628  -1.4726  -1.4593  -1.3670  -1.3588  -1.2690  -1.1237
    -1.0829  -1.0719  -0.9834  -0.8319  -0.6828  -0.5926  -0.5617  -0.5347
    -0.2675  -0.0498   0.1199   0.2916   0.7674   1.2762   1.4066   1.5425
     1.5613   1.6711   1.6833   1.7124   1.8133   1.8404   1.8722   1.8906
     1.9016   1.9453   1.9632   2.0051   2.0274   2.1377   2.1816   2.2577
     2.2918   2.3154   2.3499   2.3792   2.3858   2.4876   2.5397   2.7237
     2.7783   3.2566   6.3771   6.6627   9.9381  10.5200  12.0916  12.2648
    13.2745  13.3546  13.4077  13.4099  13.4675  13.5560  13.6704  13.7887
    14.5342  14.6600

     occupation numbers 
     1.0000   1.0000   1.0000   1.0000   1.0000   1.0000   1.0000   1.0000
     1.0000   1.0000   1.0000   1.0000   1.0000   1.0000   1.0000   1.0000
     1.0000   1.0000   1.0000   1.0000   1.0000   1.0000   1.0000   1.0000
     1.0000   1.0000   1.0000   1.0000   1.0000   1.0000   1.0000   1.0000
     1.0000   1.0000   1.0000   1.0000   1.0000   1.0000   1.0000   1.0000
     1.0000   1.0000   1.0000   1.0000   1.0000   1.0000   1.0000   1.0000
     1.0000   1.0000   1.0000   1.0000   1.0000   1.0000   1.0000   1.0000
     1.0000   1.0000   1.0000   1.0000   1.0000   1.0000   1.0000   1.0000
     1.0000   1.0000   1.0000   1.0000   1.0000   1.0000   1.0000   1.0000
     1.0000   1.0000   1.0000   1.0000   1.0000   1.0000   1.0000   1.0000
     1.0000   1.0000   0.0000   0.0000   0.0000   0.0000   0.0000   0.0000
     0.0000   0.0000   0.0000   0.0000   0.0000   0.0000   0.0000   0.0000
     0.0000   0.0000

          k = 0.0833 0.4167 0.0622 ( 10826 PWs)   bands (ev):

   -23.0420 -23.0346 -23.0211 -23.0161 -17.6669 -17.6315 -17.4117 -17.4088
   -17.2271 -17.1674 -17.0451 -17.0378 -17.0234 -17.0035 -16.9282 -16.9026
    -6.6626  -6.6211  -6.6182  -6.5729  -6.5676  -6.5600  -6.5555  -6.5385
    -6.5292  -6.5106  -6.4796  -6.4641  -2.9327  -2.9082  -2.0269  -1.9330
    -1.8955  -1.8917  -1.4723  -1.4686  -1.3584  -1.2356  -0.9582  -0.9551
    -0.9259  -0.9058  -0.8562  -0.7144  -0.5809  -0.5502  -0.5492  -0.4755
    -0.3563  -0.1977  -0.0799  -0.0083   1.0610   1.1340   1.2903   1.3779
     1.4591   1.5921   1.6993   1.7282   1.7894   1.8143   1.8819   1.8924
     1.9340   1.9509   2.0505   2.0662   2.0768   2.1803   2.1994   2.2283
     2.2804   2.3379   2.3702   2.3798   2.3839   2.4238   2.4655   2.6073
     2.8336   2.9546   6.4828   6.5446  10.0794  11.0219  12.0705  12.3704
    13.1570  13.2864  13.3290  13.4166  13.4919  13.5986  13.8521  14.1294
    14.4497  14.6010

     occupation numbers 
     1.0000   1.0000   1.0000   1.0000   1.0000   1.0000   1.0000   1.0000
     1.0000   1.0000   1.0000   1.0000   1.0000   1.0000   1.0000   1.0000
     1.0000   1.0000   1.0000   1.0000   1.0000   1.0000   1.0000   1.0000
     1.0000   1.0000   1.0000   1.0000   1.0000   1.0000   1.0000   1.0000
     1.0000   1.0000   1.0000   1.0000   1.0000   1.0000   1.0000   1.0000
     1.0000   1.0000   1.0000   1.0000   1.0000   1.0000   1.0000   1.0000
     1.0000   1.0000   1.0000   1.0000   1.0000   1.0000   1.0000   1.0000
     1.0000   1.0000   1.0000   1.0000   1.0000   1.0000   1.0000   1.0000
     1.0000   1.0000   1.0000   1.0000   1.0000   1.0000   1.0000   1.0000
     1.0000   1.0000   1.0000   1.0000   1.0000   1.0000   1.0000   1.0000
     1.0000   1.0000   0.0000   0.0000   0.0000   0.0000   0.0000   0.0000
     0.0000   0.0000   0.0000   0.0000   0.0000   0.0000   0.0000   0.0000
     0.0000   0.0000

          k = 0.0833 0.4167 0.1866 ( 10830 PWs)   bands (ev):

   -23.0392 -23.0321 -23.0240 -23.0186 -17.6407 -17.6068 -17.4610 -17.4464
   -17.2017 -17.1551 -17.0448 -17.0377 -17.0261 -17.0037 -16.9283 -16.9024
    -6.6457  -6.6109  -6.6105  -6.5739  -6.5697  -6.5622  -6.5541  -6.5447
    -6.5417  -6.5065  -6.4831  -6.4781  -2.8809  -2.8503  -1.9605  -1.8992
    -1.8798  -1.8476  -1.4365  -1.4318  -1.3533  -1.2353  -1.1118  -1.0534
    -1.0122  -0.9908  -0.8599  -0.7425  -0.7087  -0.6272  -0.5574  -0.5017
    -0.4010  -0.3106   0.0202   0.1053   1.1684   1.2655   1.3700   1.4404
     1.4877   1.6260   1.6533   1.7128   1.7882   1.8317   1.8565   1.8679
     1.9259   1.9409   1.9939   2.0154   2.0678   2.2100   2.2192   2.2662
     2.2796   2.3353   2.3604   2.3710   2.3790   2.4399   2.4785   2.6343
     2.8353   2.9630   6.4622   6.5426  10.2460  11.1313  11.5894  12.0480
    13.3322  13.4624  13.5558  13.6070  13.6256  13.6671  13.8666  14.0288
    14.4461  14.6620

     occupation numbers 
     1.0000   1.0000   1.0000   1.0000   1.0000   1.0000   1.0000   1.0000
     1.0000   1.0000   1.0000   1.0000   1.0000   1.0000   1.0000   1.0000
     1.0000   1.0000   1.0000   1.0000   1.0000   1.0000   1.0000   1.0000
     1.0000   1.0000   1.0000   1.0000   1.0000   1.0000   1.0000   1.0000
     1.0000   1.0000   1.0000   1.0000   1.0000   1.0000   1.0000   1.0000
     1.0000   1.0000   1.0000   1.0000   1.0000   1.0000   1.0000   1.0000
     1.0000   1.0000   1.0000   1.0000   1.0000   1.0000   1.0000   1.0000
     1.0000   1.0000   1.0000   1.0000   1.0000   1.0000   1.0000   1.0000
     1.0000   1.0000   1.0000   1.0000   1.0000   1.0000   1.0000   1.0000
     1.0000   1.0000   1.0000   1.0000   1.0000   1.0000   1.0000   1.0000
     1.0000   1.0000   0.0000   0.0000   0.0000   0.0000   0.0000   0.0000
     0.0000   0.0000   0.0000   0.0000   0.0000   0.0000   0.0000   0.0000
     0.0000   0.0000

          k = 0.0833 0.4167 0.3109 ( 10832 PWs)   bands (ev):

   -23.0344 -23.0288 -23.0278 -23.0228 -17.5934 -17.5628 -17.5258 -17.5015
   -17.1817 -17.1447 -17.0446 -17.0375 -17.0292 -17.0037 -16.9283 -16.9022
    -6.6165  -6.5988  -6.5936  -6.5843  -6.5812  -6.5696  -6.5648  -6.5588
    -6.5245  -6.5008  -6.4989  -6.4902  -2.8277  -2.7900  -1.8836  -1.8806
    -1.8141  -1.6994  -1.4018  -1.3922  -1.3654  -1.3359  -1.2995  -1.2336
    -1.0986  -1.0907  -0.8595  -0.8296  -0.7108  -0.6730  -0.5536  -0.5339
    -0.3892  -0.3504   0.0699   0.1546   1.2468   1.4345   1.4832   1.4994
     1.5626   1.5942   1.6788   1.6812   1.7558   1.8109   1.8309   1.8512
     1.8868   1.9104   1.9395   1.9738   2.0776   2.2056   2.2147   2.2573
     2.2859   2.3049   2.3648   2.3720   2.4067   2.4613   2.5319   2.6835
     2.8202   2.9712   6.4407   6.5408  10.5719  11.0450  11.3467  11.6753
    13.6118  13.6302  13.6700  13.7002  13.7646  13.8440  13.8661  13.9112
    14.5149  14.7397

     occupation numbers 
     1.0000   1.0000   1.0000   1.0000   1.0000   1.0000   1.0000   1.0000
     1.0000   1.0000   1.0000   1.0000   1.0000   1.0000   1.0000   1.0000
     1.0000   1.0000   1.0000   1.0000   1.0000   1.0000   1.0000   1.0000
     1.0000   1.0000   1.0000   1.0000   1.0000   1.0000   1.0000   1.0000
     1.0000   1.0000   1.0000   1.0000   1.0000   1.0000   1.0000   1.0000
     1.0000   1.0000   1.0000   1.0000   1.0000   1.0000   1.0000   1.0000
     1.0000   1.0000   1.0000   1.0000   1.0000   1.0000   1.0000   1.0000
     1.0000   1.0000   1.0000   1.0000   1.0000   1.0000   1.0000   1.0000
     1.0000   1.0000   1.0000   1.0000   1.0000   1.0000   1.0000   1.0000
     1.0000   1.0000   1.0000   1.0000   1.0000   1.0000   1.0000   1.0000
     1.0000   1.0000   0.0000   0.0000   0.0000   0.0000   0.0000   0.0000
     0.0000   0.0000   0.0000   0.0000   0.0000   0.0000   0.0000   0.0000
     0.0000   0.0000

          k = 0.2500 0.2500 0.0622 ( 10858 PWs)   bands (ev):

   -23.0457 -23.0309 -23.0238 -23.0138 -17.6845 -17.6135 -17.4136 -17.4076
   -17.2536 -17.1302 -17.0562 -17.0375 -17.0290 -16.9702 -16.9637 -16.8939
    -6.6828  -6.6420  -6.5995  -6.5780  -6.5604  -6.5550  -6.5522  -6.5437
    -6.5343  -6.4889  -6.4852  -6.4568  -2.9750  -2.9091  -2.1268  -1.9390
    -1.9102  -1.8929  -1.4725  -1.4642  -1.4147  -1.1650  -1.0101  -0.9497
    -0.9469  -0.9280  -0.9266  -0.6114  -0.5879  -0.5617  -0.4831  -0.4330
    -0.1936  -0.0557   0.1403   0.4051   0.5056   0.9407   1.2535   1.2852
     1.4179   1.5183   1.7747   1.7957   1.8326   1.8619   1.8638   1.8777
     1.8975   1.9842   1.9975   2.0354   2.0822   2.1154   2.1243   2.2259
     2.2816   2.3399   2.3707   2.3785   2.3982   2.4318   2.4901   2.5498
     2.8567   3.0759   6.4685   6.5981   9.7269  11.8933  11.9707  12.6372
    12.8681  13.0476  13.1930  13.2094  13.2452  13.4578  13.9749  14.2329
    14.4191  14.7125

     occupation numbers 
     1.0000   1.0000   1.0000   1.0000   1.0000   1.0000   1.0000   1.0000
     1.0000   1.0000   1.0000   1.0000   1.0000   1.0000   1.0000   1.0000
     1.0000   1.0000   1.0000   1.0000   1.0000   1.0000   1.0000   1.0000
     1.0000   1.0000   1.0000   1.0000   1.0000   1.0000   1.0000   1.0000
     1.0000   1.0000   1.0000   1.0000   1.0000   1.0000   1.0000   1.0000
     1.0000   1.0000   1.0000   1.0000   1.0000   1.0000   1.0000   1.0000
     1.0000   1.0000   1.0000   1.0000   1.0000   1.0000   1.0000   1.0000
     1.0000   1.0000   1.0000   1.0000   1.0000   1.0000   1.0000   1.0000
     1.0000   1.0000   1.0000   1.0000   1.0000   1.0000   1.0000   1.0000
     1.0000   1.0000   1.0000   1.0000   1.0000   1.0000   1.0000   1.0000
     1.0000   1.0000   0.0000   0.0000   0.0000   0.0000   0.0000   0.0000
     0.0000   0.0000   0.0000   0.0000   0.0000   0.0000   0.0000   0.0000
     0.0000   0.0000

          k = 0.2500 0.2500 0.1866 ( 10844 PWs)   bands (ev):

   -23.0428 -23.0285 -23.0268 -23.0159 -17.6577 -17.5898 -17.4695 -17.4401
   -17.2209 -17.1235 -17.0562 -17.0373 -17.0328 -16.9692 -16.9637 -16.8934
    -6.6604  -6.6314  -6.5931  -6.5703  -6.5680  -6.5655  -6.5509  -6.5439
    -6.5274  -6.4975  -6.4917  -6.4805  -2.9317  -2.8498  -2.0483  -1.8972
    -1.8860  -1.8635  -1.4493  -1.4309  -1.3983  -1.1933  -1.1647  -1.0236
    -1.0085  -1.0008  -0.9244  -0.7640  -0.6113  -0.6085  -0.5296  -0.5175
    -0.2614   0.0134   0.2132   0.4427   0.4809   1.1524   1.3431   1.3869
     1.4428   1.5890   1.7296   1.7556   1.8375   1.8603   1.8656   1.8779
     1.8968   1.9060   1.9738   2.0005   2.0646   2.1019   2.1370   2.2738
     2.3136   2.3260   2.3320   2.3681   2.3942   2.4847   2.5193   2.5302
     2.8481   3.1072   6.4371   6.5993   9.9199  11.4345  11.9633  12.5023
    12.9397  13.2106  13.2203  13.2948  13.4870  13.5946  14.0942  14.1060
    14.2864  14.7301

     occupation numbers 
     1.0000   1.0000   1.0000   1.0000   1.0000   1.0000   1.0000   1.0000
     1.0000   1.0000   1.0000   1.0000   1.0000   1.0000   1.0000   1.0000
     1.0000   1.0000   1.0000   1.0000   1.0000   1.0000   1.0000   1.0000
     1.0000   1.0000   1.0000   1.0000   1.0000   1.0000   1.0000   1.0000
     1.0000   1.0000   1.0000   1.0000   1.0000   1.0000   1.0000   1.0000
     1.0000   1.0000   1.0000   1.0000   1.0000   1.0000   1.0000   1.0000
     1.0000   1.0000   1.0000   1.0000   1.0000   1.0000   1.0000   1.0000
     1.0000   1.0000   1.0000   1.0000   1.0000   1.0000   1.0000   1.0000
     1.0000   1.0000   1.0000   1.0000   1.0000   1.0000   1.0000   1.0000
     1.0000   1.0000   1.0000   1.0000   1.0000   1.0000   1.0000   1.0000
     1.0000   1.0000   0.0000   0.0000   0.0000   0.0000   0.0000   0.0000
     0.0000   0.0000   0.0000   0.0000   0.0000   0.0000   0.0000   0.0000
     0.0000   0.0000

          k = 0.2500 0.2500 0.3109 ( 10829 PWs)   bands (ev):

   -23.0377 -23.0319 -23.0244 -23.0198 -17.6091 -17.5478 -17.5386 -17.4900
   -17.1964 -17.1177 -17.0562 -17.0380 -17.0361 -16.9682 -16.9638 -16.8930
    -6.6236  -6.6131  -6.5933  -6.5881  -6.5761  -6.5632  -6.5482  -6.5293
    -6.5172  -6.5156  -6.5124  -6.5023  -2.8889  -2.7879  -1.9061  -1.8842
    -1.8725  -1.6975  -1.4679  -1.4401  -1.3664  -1.3611  -1.2883  -1.1644
    -1.0968  -1.0776  -0.9236  -0.8569  -0.6235  -0.6112  -0.5713  -0.5489
    -0.3044   0.0647   0.2994   0.4372   0.4702   1.3478   1.4419   1.4758
     1.5460   1.6305   1.6851   1.7153   1.7501   1.8188   1.8540   1.8828
     1.8945   1.9112   1.9208   2.0258   2.0473   2.0853   2.1432   2.2607
     2.2842   2.2949   2.3406   2.3713   2.4158   2.4657   2.5053   2.6609
     2.8131   3.1414   6.4027   6.6019  10.2939  10.8275  12.0892  12.3108
    13.0451  13.1431  13.4400  13.5499  13.5678  13.8083  13.8921  14.0534
    14.3832  14.7202

     occupation numbers 
     1.0000   1.0000   1.0000   1.0000   1.0000   1.0000   1.0000   1.0000
     1.0000   1.0000   1.0000   1.0000   1.0000   1.0000   1.0000   1.0000
     1.0000   1.0000   1.0000   1.0000   1.0000   1.0000   1.0000   1.0000
     1.0000   1.0000   1.0000   1.0000   1.0000   1.0000   1.0000   1.0000
     1.0000   1.0000   1.0000   1.0000   1.0000   1.0000   1.0000   1.0000
     1.0000   1.0000   1.0000   1.0000   1.0000   1.0000   1.0000   1.0000
     1.0000   1.0000   1.0000   1.0000   1.0000   1.0000   1.0000   1.0000
     1.0000   1.0000   1.0000   1.0000   1.0000   1.0000   1.0000   1.0000
     1.0000   1.0000   1.0000   1.0000   1.0000   1.0000   1.0000   1.0000
     1.0000   1.0000   1.0000   1.0000   1.0000   1.0000   1.0000   1.0000
     1.0000   1.0000   0.0000   0.0000   0.0000   0.0000   0.0000   0.0000
     0.0000   0.0000   0.0000   0.0000   0.0000   0.0000   0.0000   0.0000
     0.0000   0.0000

          k = 0.2500 0.4167 0.0622 ( 10843 PWs)   bands (ev):

   -23.0403 -23.0349 -23.0207 -23.0171 -17.6655 -17.6396 -17.4133 -17.4112
   -17.2123 -17.1661 -17.0512 -17.0426 -17.0128 -16.9905 -16.9428 -16.9164
    -6.6524  -6.6221  -6.6142  -6.5814  -6.5524  -6.5461  -6.5345  -6.5270
    -6.5207  -6.4866  -6.4791  -6.4673  -2.9574  -2.9280  -2.0938  -2.0152
    -1.9251  -1.9171  -1.4874  -1.4829  -1.3307  -1.2401  -0.9841  -0.9468
    -0.9427  -0.8919  -0.8237  -0.7073  -0.5685  -0.5127  -0.5052  -0.2959
    -0.1630  -0.1368  -0.0014   0.2287   0.8547   0.9972   1.1874   1.2540
     1.4826   1.6244   1.7119   1.7439   1.7783   1.8045   1.8491   1.8515
     1.8705   1.8851   2.0313   2.0444   2.0670   2.1244   2.1624   2.1816
     2.2528   2.3016   2.3505   2.3635   2.3749   2.4271   2.4499   2.5189
     2.8748   2.9275   6.4958   6.5423  10.4426  11.2799  12.2780  12.5460
    12.8367  13.0056  13.4083  13.5601  13.6877  13.7011  13.7970  14.2433
    14.5209  14.5293

     occupation numbers 
     1.0000   1.0000   1.0000   1.0000   1.0000   1.0000   1.0000   1.0000
     1.0000   1.0000   1.0000   1.0000   1.0000   1.0000   1.0000   1.0000
     1.0000   1.0000   1.0000   1.0000   1.0000   1.0000   1.0000   1.0000
     1.0000   1.0000   1.0000   1.0000   1.0000   1.0000   1.0000   1.0000
     1.0000   1.0000   1.0000   1.0000   1.0000   1.0000   1.0000   1.0000
     1.0000   1.0000   1.0000   1.0000   1.0000   1.0000   1.0000   1.0000
     1.0000   1.0000   1.0000   1.0000   1.0000   1.0000   1.0000   1.0000
     1.0000   1.0000   1.0000   1.0000   1.0000   1.0000   1.0000   1.0000
     1.0000   1.0000   1.0000   1.0000   1.0000   1.0000   1.0000   1.0000
     1.0000   1.0000   1.0000   1.0000   1.0000   1.0000   1.0000   1.0000
     1.0000   1.0000   0.0000   0.0000   0.0000   0.0000   0.0000   0.0000
     0.0000   0.0000   0.0000   0.0000   0.0000   0.0000   0.0000   0.0000
     0.0000   0.0000

          k = 0.2500 0.4167 0.1866 ( 10828 PWs)   bands (ev):

   -23.0376 -23.0324 -23.0232 -23.0193 -17.6391 -17.6143 -17.4604 -17.4499
   -17.1903 -17.1536 -17.0512 -17.0424 -17.0147 -16.9904 -16.9426 -16.9161
    -6.6340  -6.6101  -6.6046  -6.5716  -6.5598  -6.5527  -6.5435  -6.5294
    -6.5179  -6.4905  -6.4893  -6.4827  -2.9107  -2.8739  -2.0161  -1.9447
    -1.9066  -1.9020  -1.4535  -1.4497  -1.3278  -1.2397  -1.1670  -1.0824
    -1.0122  -1.0080  -0.8230  -0.7080  -0.6425  -0.5602  -0.4819  -0.4204
    -0.2971  -0.0962   0.1117   0.3078   0.8912   1.1435   1.2792   1.3315
     1.4968   1.6394   1.6591   1.7354   1.7670   1.8170   1.8460   1.8540
     1.8626   1.8846   1.9565   1.9837   2.0671   2.1605   2.1981   2.2038
     2.2963   2.3084   2.3354   2.3725   2.3871   2.4080   2.4606   2.4804
     2.8893   2.9700   6.4747   6.5314  10.5992  11.3914  11.8537  12.2800
    12.9547  13.1606  13.5059  13.5828  13.7016  13.8268  13.9573  14.1876
    14.5304  14.5708

     occupation numbers 
     1.0000   1.0000   1.0000   1.0000   1.0000   1.0000   1.0000   1.0000
     1.0000   1.0000   1.0000   1.0000   1.0000   1.0000   1.0000   1.0000
     1.0000   1.0000   1.0000   1.0000   1.0000   1.0000   1.0000   1.0000
     1.0000   1.0000   1.0000   1.0000   1.0000   1.0000   1.0000   1.0000
     1.0000   1.0000   1.0000   1.0000   1.0000   1.0000   1.0000   1.0000
     1.0000   1.0000   1.0000   1.0000   1.0000   1.0000   1.0000   1.0000
     1.0000   1.0000   1.0000   1.0000   1.0000   1.0000   1.0000   1.0000
     1.0000   1.0000   1.0000   1.0000   1.0000   1.0000   1.0000   1.0000
     1.0000   1.0000   1.0000   1.0000   1.0000   1.0000   1.0000   1.0000
     1.0000   1.0000   1.0000   1.0000   1.0000   1.0000   1.0000   1.0000
     1.0000   1.0000   0.0000   0.0000   0.0000   0.0000   0.0000   0.0000
     0.0000   0.0000   0.0000   0.0000   0.0000   0.0000   0.0000   0.0000
     0.0000   0.0000

          k = 0.2500 0.4167 0.3109 ( 10817 PWs)   bands (ev):

   -23.0330 -23.0281 -23.0277 -23.0233 -17.5915 -17.5692 -17.5242 -17.5065
   -17.1726 -17.1431 -17.0511 -17.0422 -17.0167 -16.9903 -16.9423 -16.9158
    -6.6036  -6.5906  -6.5874  -6.5759  -6.5683  -6.5631  -6.5539  -6.5367
    -6.5125  -6.5017  -6.4983  -6.4960  -2.8640  -2.8184  -1.8976  -1.8958
    -1.8553  -1.7814  -1.4468  -1.4170  -1.3903  -1.3650  -1.3201  -1.2385
    -1.0997  -1.0895  -0.8221  -0.7082  -0.6889  -0.6044  -0.4937  -0.4389
    -0.3724  -0.0640   0.1691   0.3530   0.9210   1.3070   1.4017   1.4114
     1.5160   1.5557   1.6867   1.6938   1.7567   1.8104   1.8221   1.8593
     1.8717   1.8755   1.9000   1.9440   2.0756   2.1924   2.2053   2.2284
     2.2904   2.3007   2.3174   2.3615   2.3983   2.4072   2.4363   2.5275
     2.9037   3.0163   6.4518   6.5212  10.9042  11.3511  11.6063  11.9360
    13.1550  13.3760  13.4132  13.6311  13.7586  14.0357  14.0631  14.0976
    14.4554  14.5278

     occupation numbers 
     1.0000   1.0000   1.0000   1.0000   1.0000   1.0000   1.0000   1.0000
     1.0000   1.0000   1.0000   1.0000   1.0000   1.0000   1.0000   1.0000
     1.0000   1.0000   1.0000   1.0000   1.0000   1.0000   1.0000   1.0000
     1.0000   1.0000   1.0000   1.0000   1.0000   1.0000   1.0000   1.0000
     1.0000   1.0000   1.0000   1.0000   1.0000   1.0000   1.0000   1.0000
     1.0000   1.0000   1.0000   1.0000   1.0000   1.0000   1.0000   1.0000
     1.0000   1.0000   1.0000   1.0000   1.0000   1.0000   1.0000   1.0000
     1.0000   1.0000   1.0000   1.0000   1.0000   1.0000   1.0000   1.0000
     1.0000   1.0000   1.0000   1.0000   1.0000   1.0000   1.0000   1.0000
     1.0000   1.0000   1.0000   1.0000   1.0000   1.0000   1.0000   1.0000
     1.0000   1.0000   0.0000   0.0000   0.0000   0.0000   0.0000   0.0000
     0.0000   0.0000   0.0000   0.0000   0.0000   0.0000   0.0000   0.0000
     0.0000   0.0000

          k = 0.4167 0.4167 0.0622 ( 10810 PWs)   bands (ev):

   -23.0379 -23.0359 -23.0198 -23.0185 -17.6607 -17.6513 -17.4146 -17.4139
   -17.1897 -17.1716 -17.0552 -17.0507 -16.9929 -16.9719 -16.9623 -16.9399
    -6.6383  -6.6272  -6.6050  -6.5931  -6.5400  -6.5378  -6.5248  -6.5217
    -6.4808  -6.4769  -6.4725  -6.4680  -2.9714  -2.9579  -2.1284  -2.1012
    -1.9517  -1.9483  -1.4990  -1.4975  -1.2920  -1.2590  -1.0194  -0.9801
    -0.9397  -0.9393  -0.7702  -0.7261  -0.5162  -0.4957  -0.2198  -0.2164
    -0.1381   0.1665   0.1745   0.4020   0.5951   0.8144   1.1047   1.1144
     1.5239   1.6658   1.6794   1.7178   1.7773   1.7879   1.7952   1.8139
     1.8188   1.8306   1.9194   1.9954   2.0545   2.0589   2.0722   2.1129
     2.2024   2.2315   2.3737   2.3763   2.3879   2.4075   2.5127   2.5395
     2.8798   2.8986   6.5173   6.5343  11.0298  11.4868  12.3557  12.5408
    12.5996  12.6797  13.4950  13.6036  13.8946  13.9345  14.3138  14.3216
    14.3394  14.6623

     occupation numbers 
     1.0000   1.0000   1.0000   1.0000   1.0000   1.0000   1.0000   1.0000
     1.0000   1.0000   1.0000   1.0000   1.0000   1.0000   1.0000   1.0000
     1.0000   1.0000   1.0000   1.0000   1.0000   1.0000   1.0000   1.0000
     1.0000   1.0000   1.0000   1.0000   1.0000   1.0000   1.0000   1.0000
     1.0000   1.0000   1.0000   1.0000   1.0000   1.0000   1.0000   1.0000
     1.0000   1.0000   1.0000   1.0000   1.0000   1.0000   1.0000   1.0000
     1.0000   1.0000   1.0000   1.0000   1.0000   1.0000   1.0000   1.0000
     1.0000   1.0000   1.0000   1.0000   1.0000   1.0000   1.0000   1.0000
     1.0000   1.0000   1.0000   1.0000   1.0000   1.0000   1.0000   1.0000
     1.0000   1.0000   1.0000   1.0000   1.0000   1.0000   1.0000   1.0000
     1.0000   1.0000   0.0000   0.0000   0.0000   0.0000   0.0000   0.0000
     0.0000   0.0000   0.0000   0.0000   0.0000   0.0000   0.0000   0.0000
     0.0000   0.0000

          k = 0.4167 0.4167 0.1866 ( 10835 PWs)   bands (ev):

   -23.0354 -23.0334 -23.0220 -23.0205 -17.6343 -17.6253 -17.4584 -17.4546
   -17.1724 -17.1577 -17.0551 -17.0505 -16.9935 -16.9713 -16.9625 -16.9396
    -6.6181  -6.6107  -6.5964  -6.5829  -6.5488  -6.5467  -6.5242  -6.5146
    -6.4962  -6.4902  -6.4855  -6.4754  -2.9270  -2.9103  -2.0454  -2.0207
    -1.9305  -1.9277  -1.4685  -1.4666  -1.2909  -1.2583  -1.1986  -1.1632
    -1.0112  -1.0109  -0.7697  -0.7264  -0.5703  -0.5475  -0.3678  -0.3390
    -0.0911   0.2518   0.3007   0.4733   0.5617   0.8926   1.2002   1.2049
     1.5332   1.6286   1.6534   1.6691   1.7718   1.8040   1.8202   1.8206
     1.8409   1.8459   1.9379   1.9456   2.0490   2.0632   2.0742   2.1898
     2.2094   2.2384   2.3578   2.3646   2.3818   2.4066   2.4686   2.4981
     2.9317   2.9611   6.4951   6.5148  11.1679  11.5997  12.2394  12.4573
    12.5046  12.7460  13.5504  13.6296  13.6754  13.7445  14.3978  14.4185
    14.4669  14.7198

     occupation numbers 
     1.0000   1.0000   1.0000   1.0000   1.0000   1.0000   1.0000   1.0000
     1.0000   1.0000   1.0000   1.0000   1.0000   1.0000   1.0000   1.0000
     1.0000   1.0000   1.0000   1.0000   1.0000   1.0000   1.0000   1.0000
     1.0000   1.0000   1.0000   1.0000   1.0000   1.0000   1.0000   1.0000
     1.0000   1.0000   1.0000   1.0000   1.0000   1.0000   1.0000   1.0000
     1.0000   1.0000   1.0000   1.0000   1.0000   1.0000   1.0000   1.0000
     1.0000   1.0000   1.0000   1.0000   1.0000   1.0000   1.0000   1.0000
     1.0000   1.0000   1.0000   1.0000   1.0000   1.0000   1.0000   1.0000
     1.0000   1.0000   1.0000   1.0000   1.0000   1.0000   1.0000   1.0000
     1.0000   1.0000   1.0000   1.0000   1.0000   1.0000   1.0000   1.0000
     1.0000   1.0000   0.0000   0.0000   0.0000   0.0000   0.0000   0.0000
     0.0000   0.0000   0.0000   0.0000   0.0000   0.0000   0.0000   0.0000
     0.0000   0.0000

          k = 0.4167 0.4167 0.3109 ( 10824 PWs)   bands (ev):

   -23.0310 -23.0292 -23.0260 -23.0244 -17.5868 -17.5787 -17.5202 -17.5138
   -17.1581 -17.1461 -17.0551 -17.0503 -16.9941 -16.9706 -16.9626 -16.9392
    -6.5852  -6.5828  -6.5815  -6.5642  -6.5629  -6.5611  -6.5435  -6.5284
    -6.5024  -6.5000  -6.4932  -6.4879  -2.8830  -2.8627  -1.9110  -1.9091
    -1.8778  -1.8555  -1.4754  -1.4429  -1.4297  -1.4199  -1.2888  -1.2577
    -1.0954  -1.0910  -0.7694  -0.7267  -0.6163  -0.5939  -0.4387  -0.4041
    -0.0584   0.3577   0.3699   0.5013   0.5171   0.9592   1.3306   1.3411
     1.4870   1.5109   1.6461   1.6598   1.7923   1.8164   1.8217   1.8376
     1.8564   1.8598   1.8971   1.9804   2.0339   2.0587   2.0869   2.2163
     2.2417   2.2463   2.3454   2.3597   2.3741   2.4070   2.4164   2.4477
     2.9873   3.0265   6.4715   6.4954  11.4328  11.8114  11.8289  12.1480
    12.7809  13.0194  13.1456  13.3572  13.8884  14.0098  14.2162  14.3278
    14.5427  14.6630

     occupation numbers 
     1.0000   1.0000   1.0000   1.0000   1.0000   1.0000   1.0000   1.0000
     1.0000   1.0000   1.0000   1.0000   1.0000   1.0000   1.0000   1.0000
     1.0000   1.0000   1.0000   1.0000   1.0000   1.0000   1.0000   1.0000
     1.0000   1.0000   1.0000   1.0000   1.0000   1.0000   1.0000   1.0000
     1.0000   1.0000   1.0000   1.0000   1.0000   1.0000   1.0000   1.0000
     1.0000   1.0000   1.0000   1.0000   1.0000   1.0000   1.0000   1.0000
     1.0000   1.0000   1.0000   1.0000   1.0000   1.0000   1.0000   1.0000
     1.0000   1.0000   1.0000   1.0000   1.0000   1.0000   1.0000   1.0000
     1.0000   1.0000   1.0000   1.0000   1.0000   1.0000   1.0000   1.0000
     1.0000   1.0000   1.0000   1.0000   1.0000   1.0000   1.0000   1.0000
     1.0000   1.0000   0.0000   0.0000   0.0000   0.0000   0.0000   0.0000
     0.0000   0.0000   0.0000   0.0000   0.0000   0.0000   0.0000   0.0000
     0.0000   0.0000

          k =-0.0833 0.0833-0.0622 ( 10859 PWs)   bands (ev):

   -23.0535 -23.0285 -23.0265 -23.0094 -17.7086 -17.5755 -17.4151 -17.4015
   -17.3045 -17.0792 -17.0579 -17.0467 -17.0440 -16.9651 -16.9648 -16.8688
    -6.7268  -6.6804  -6.6719  -6.5839  -6.5823  -6.5668  -6.5486  -6.5472
    -6.5109  -6.5020  -6.5018  -6.4426  -2.9984  -2.9212  -2.1672  -2.0098
    -1.8774  -1.8717  -1.5382  -1.4295  -1.4258  -1.0566  -1.0560  -1.0465
    -0.9545  -0.9478  -0.9072  -0.5372  -0.4797  -0.4726  -0.4652  -0.2578
    -0.1271   0.0954   0.1189   0.2984   0.3814   0.7718   0.9766   1.3521
     1.3965   1.4245   1.8259   1.8560   1.8749   1.8804   1.8995   1.9007
     1.9988   2.0305   2.0321   2.0882   2.1000   2.1139   2.1194   2.1922
     2.2035   2.3074   2.3110   2.5294   2.5470   2.5596   2.5846   2.6247
     2.6699   3.4593   6.4563   6.7175   8.8610  11.5788  12.4694  12.6330
    12.6937  12.7261  12.7610  12.8843  12.9750  13.6498  13.8553  14.1836
    14.2308  14.3725

     occupation numbers 
     1.0000   1.0000   1.0000   1.0000   1.0000   1.0000   1.0000   1.0000
     1.0000   1.0000   1.0000   1.0000   1.0000   1.0000   1.0000   1.0000
     1.0000   1.0000   1.0000   1.0000   1.0000   1.0000   1.0000   1.0000
     1.0000   1.0000   1.0000   1.0000   1.0000   1.0000   1.0000   1.0000
     1.0000   1.0000   1.0000   1.0000   1.0000   1.0000   1.0000   1.0000
     1.0000   1.0000   1.0000   1.0000   1.0000   1.0000   1.0000   1.0000
     1.0000   1.0000   1.0000   1.0000   1.0000   1.0000   1.0000   1.0000
     1.0000   1.0000   1.0000   1.0000   1.0000   1.0000   1.0000   1.0000
     1.0000   1.0000   1.0000   1.0000   1.0000   1.0000   1.0000   1.0000
     1.0000   1.0000   1.0000   1.0000   1.0000   1.0000   1.0000   1.0000
     1.0000   1.0000   0.0000   0.0000   0.0000   0.0000   0.0000   0.0000
     0.0000   0.0000   0.0000   0.0000   0.0000   0.0000   0.0000   0.0000
     0.0000   0.0000

          k =-0.0833 0.0833-0.1866 ( 10843 PWs)   bands (ev):

   -23.0501 -23.0318 -23.0241 -23.0116 -17.6817 -17.5543 -17.4845 -17.4266
   -17.2560 -17.0772 -17.0576 -17.0522 -17.0441 -16.9652 -16.9651 -16.8680
    -6.6945  -6.6671  -6.6555  -6.5965  -6.5956  -6.5601  -6.5454  -6.5409
    -6.5140  -6.5088  -6.5076  -6.4811  -2.9573  -2.8660  -2.0938  -1.9156
    -1.8694  -1.8626  -1.5307  -1.3989  -1.3969  -1.2507  -1.0603  -1.0561
    -1.0308  -0.9982  -0.9837  -0.5758  -0.5391  -0.5145  -0.4651  -0.4531
    -0.2595   0.1549   0.1884   0.3185   0.3666   1.0053   1.0999   1.4444
     1.4815   1.5151   1.8246   1.8457   1.8646   1.8709   1.9047   1.9154
     1.9717   1.9934   2.0127   2.0346   2.0964   2.1186   2.1207   2.1805
     2.2047   2.3050   2.3140   2.4673   2.4989   2.5531   2.6256   2.6306
     2.6943   3.4684   6.4030   6.7363   9.1078  10.9379  12.4878  12.6440
    12.8542  12.9016  12.9576  13.0677  13.1166  13.6082  13.7221  13.9178
    14.2393  14.4513

     occupation numbers 
     1.0000   1.0000   1.0000   1.0000   1.0000   1.0000   1.0000   1.0000
     1.0000   1.0000   1.0000   1.0000   1.0000   1.0000   1.0000   1.0000
     1.0000   1.0000   1.0000   1.0000   1.0000   1.0000   1.0000   1.0000
     1.0000   1.0000   1.0000   1.0000   1.0000   1.0000   1.0000   1.0000
     1.0000   1.0000   1.0000   1.0000   1.0000   1.0000   1.0000   1.0000
     1.0000   1.0000   1.0000   1.0000   1.0000   1.0000   1.0000   1.0000
     1.0000   1.0000   1.0000   1.0000   1.0000   1.0000   1.0000   1.0000
     1.0000   1.0000   1.0000   1.0000   1.0000   1.0000   1.0000   1.0000
     1.0000   1.0000   1.0000   1.0000   1.0000   1.0000   1.0000   1.0000
     1.0000   1.0000   1.0000   1.0000   1.0000   1.0000   1.0000   1.0000
     1.0000   1.0000  -0.0000   0.0000   0.0000   0.0000   0.0000   0.0000
     0.0000   0.0000   0.0000   0.0000   0.0000   0.0000   0.0000   0.0000
     0.0000   0.0000

          k =-0.0833 0.0833-0.3109 ( 10871 PWs)   bands (ev):

   -23.0444 -23.0377 -23.0200 -23.0155 -17.6326 -17.5589 -17.5178 -17.4669
   -17.2236 -17.0755 -17.0596 -17.0573 -17.0434 -16.9655 -16.9653 -16.8672
    -6.6506  -6.6445  -6.6191  -6.6187  -6.6144  -6.5494  -6.5461  -6.5429
    -6.5301  -6.5185  -6.5178  -6.5175  -2.9163  -2.8109  -1.9567  -1.8613
    -1.8588  -1.6943  -1.5230  -1.5098  -1.3642  -1.3601  -1.3174  -1.0707
    -1.0642  -1.0560  -1.0494  -0.6932  -0.6084  -0.5521  -0.4650  -0.4640
    -0.2604   0.2213   0.2372   0.3180   0.3398   1.0440   1.3155   1.5808
     1.6032   1.6392   1.7618   1.7797   1.8715   1.8808   1.8928   1.9023
     1.9347   1.9647   1.9871   1.9879   2.0921   2.1135   2.1245   2.1699
     2.2229   2.3160   2.3340   2.3911   2.4259   2.5537   2.6256   2.6617
     2.7357   3.4771   6.3470   6.7541   9.5772  10.2203  12.5152  12.6146
    13.0881  13.1359  13.1795  13.2453  13.3219  13.3776  13.4830  13.5830
    14.5253  14.6265

     occupation numbers 
     1.0000   1.0000   1.0000   1.0000   1.0000   1.0000   1.0000   1.0000
     1.0000   1.0000   1.0000   1.0000   1.0000   1.0000   1.0000   1.0000
     1.0000   1.0000   1.0000   1.0000   1.0000   1.0000   1.0000   1.0000
     1.0000   1.0000   1.0000   1.0000   1.0000   1.0000   1.0000   1.0000
     1.0000   1.0000   1.0000   1.0000   1.0000   1.0000   1.0000   1.0000
     1.0000   1.0000   1.0000   1.0000   1.0000   1.0000   1.0000   1.0000
     1.0000   1.0000   1.0000   1.0000   1.0000   1.0000   1.0000   1.0000
     1.0000   1.0000   1.0000   1.0000   1.0000   1.0000   1.0000   1.0000
     1.0000   1.0000   1.0000   1.0000   1.0000   1.0000   1.0000   1.0000
     1.0000   1.0000   1.0000   1.0000   1.0000   1.0000   1.0000   1.0000
     1.0000   1.0000   0.0375   0.0000   0.0000   0.0000   0.0000   0.0000
     0.0000   0.0000   0.0000   0.0000   0.0000   0.0000   0.0000   0.0000
     0.0000   0.0000

          k =-0.0833 0.2500-0.0622 ( 10833 PWs)   bands (ev):

   -23.0491 -23.0291 -23.0257 -23.0119 -17.6942 -17.5970 -17.4135 -17.4047
   -17.2772 -17.1144 -17.0535 -17.0390 -17.0359 -16.9812 -16.9512 -16.8810
    -6.7023  -6.6576  -6.6224  -6.5899  -6.5737  -6.5625  -6.5520  -6.5366
    -6.5336  -6.4977  -6.4938  -6.4506  -2.9720  -2.9086  -2.1207  -1.9421
    -1.8892  -1.8778  -1.4712  -1.4529  -1.4432  -1.1238  -1.0021  -0.9884
    -0.9553  -0.9484  -0.8491  -0.7383  -0.5615  -0.5254  -0.4953  -0.2896
    -0.2121  -0.1217   0.0050   0.1957   0.7235   0.9841   1.1675   1.3411
     1.4162   1.4580   1.7946   1.8202   1.8446   1.8678   1.8911   1.9075
     1.9425   1.9559   2.0358   2.0507   2.0910   2.1238   2.1499   2.2161
     2.2637   2.3165   2.3303   2.4484   2.4601   2.5151   2.5375   2.6131
     2.7789   3.2315   6.4594   6.6399   9.3073  11.7673  11.9451  12.5656
    12.9003  12.9390  13.0730  13.1397  13.1835  13.3864  14.0556  14.1231
    14.3328  14.4903

     occupation numbers 
     1.0000   1.0000   1.0000   1.0000   1.0000   1.0000   1.0000   1.0000
     1.0000   1.0000   1.0000   1.0000   1.0000   1.0000   1.0000   1.0000
     1.0000   1.0000   1.0000   1.0000   1.0000   1.0000   1.0000   1.0000
     1.0000   1.0000   1.0000   1.0000   1.0000   1.0000   1.0000   1.0000
     1.0000   1.0000   1.0000   1.0000   1.0000   1.0000   1.0000   1.0000
     1.0000   1.0000   1.0000   1.0000   1.0000   1.0000   1.0000   1.0000
     1.0000   1.0000   1.0000   1.0000   1.0000   1.0000   1.0000   1.0000
     1.0000   1.0000   1.0000   1.0000   1.0000   1.0000   1.0000   1.0000
     1.0000   1.0000   1.0000   1.0000   1.0000   1.0000   1.0000   1.0000
     1.0000   1.0000   1.0000   1.0000   1.0000   1.0000   1.0000   1.0000
     1.0000   1.0000   0.0000   0.0000   0.0000   0.0000   0.0000   0.0000
     0.0000   0.0000   0.0000   0.0000   0.0000   0.0000   0.0000   0.0000
     0.0000   0.0000

          k =-0.0833 0.2500-0.1866 ( 10846 PWs)   bands (ev):

   -23.0460 -23.0289 -23.0267 -23.0141 -17.6673 -17.5744 -17.4752 -17.4340
   -17.2376 -17.1099 -17.0532 -17.0433 -17.0364 -16.9806 -16.9514 -16.8805
    -6.6782  -6.6465  -6.6064  -6.5915  -6.5778  -6.5746  -6.5506  -6.5387
    -6.5336  -6.4998  -6.4973  -6.4795  -2.9272  -2.8502  -2.0488  -1.8896
    -1.8727  -1.8458  -1.4720  -1.4153  -1.4065  -1.1985  -1.1237  -1.0372
    -1.0117  -0.9799  -0.9130  -0.7939  -0.6215  -0.5615  -0.5524  -0.4984
    -0.2506  -0.0818   0.0798   0.2577   0.7512   1.1728   1.2660   1.4201
     1.4560   1.5542   1.7616   1.7877   1.8403   1.8660   1.8765   1.8958
     1.9267   1.9477   1.9975   2.0345   2.0527   2.1276   2.1737   2.2560
     2.2793   2.3184   2.3397   2.3920   2.4352   2.4900   2.5387   2.6606
     2.7855   3.2439   6.4193   6.6513   9.5229  11.1795  11.9958  12.4293
    13.0580  13.1718  13.2250  13.2964  13.3430  13.4302  13.9017  14.0169
    14.3216  14.5470

     occupation numbers 
     1.0000   1.0000   1.0000   1.0000   1.0000   1.0000   1.0000   1.0000
     1.0000   1.0000   1.0000   1.0000   1.0000   1.0000   1.0000   1.0000
     1.0000   1.0000   1.0000   1.0000   1.0000   1.0000   1.0000   1.0000
     1.0000   1.0000   1.0000   1.0000   1.0000   1.0000   1.0000   1.0000
     1.0000   1.0000   1.0000   1.0000   1.0000   1.0000   1.0000   1.0000
     1.0000   1.0000   1.0000   1.0000   1.0000   1.0000   1.0000   1.0000
     1.0000   1.0000   1.0000   1.0000   1.0000   1.0000   1.0000   1.0000
     1.0000   1.0000   1.0000   1.0000   1.0000   1.0000   1.0000   1.0000
     1.0000   1.0000   1.0000   1.0000   1.0000   1.0000   1.0000   1.0000
     1.0000   1.0000   1.0000   1.0000   1.0000   1.0000   1.0000   1.0000
     1.0000   1.0000  -0.0000   0.0000   0.0000   0.0000   0.0000   0.0000
     0.0000   0.0000   0.0000   0.0000   0.0000   0.0000   0.0000   0.0000
     0.0000   0.0000

          k =-0.0833 0.2500-0.3109 ( 10861 PWs)   bands (ev):

   -23.0406 -23.0344 -23.0226 -23.0180 -17.6185 -17.5468 -17.5347 -17.4798
   -17.2093 -17.1059 -17.0529 -17.0491 -17.0362 -16.9799 -16.9516 -16.8800
    -6.6400  -6.6277  -6.6070  -6.6036  -6.5744  -6.5666  -6.5553  -6.5373
    -6.5368  -6.5248  -6.5019  -6.5010  -2.8823  -2.7904  -1.9137  -1.8745
    -1.8638  -1.6627  -1.4726  -1.4593  -1.3658  -1.3601  -1.2692  -1.1236
    -1.0838  -1.0710  -0.9833  -0.8320  -0.6826  -0.5933  -0.5617  -0.5341
    -0.2674  -0.0497   0.1201   0.2913   0.7675   1.2761   1.4064   1.5425
     1.5614   1.6711   1.6833   1.7124   1.8131   1.8406   1.8723   1.8906
     1.9017   1.9454   1.9629   2.0052   2.0275   2.1377   2.1815   2.2577
     2.2918   2.3157   2.3497   2.3791   2.3856   2.4875   2.5397   2.7238
     2.7787   3.2566   6.3770   6.6628   9.9381  10.5200  12.0916  12.2648
    13.2745  13.3546  13.4077  13.4099  13.4675  13.5561  13.6704  13.7888
    14.5340  14.6602

     occupation numbers 
     1.0000   1.0000   1.0000   1.0000   1.0000   1.0000   1.0000   1.0000
     1.0000   1.0000   1.0000   1.0000   1.0000   1.0000   1.0000   1.0000
     1.0000   1.0000   1.0000   1.0000   1.0000   1.0000   1.0000   1.0000
     1.0000   1.0000   1.0000   1.0000   1.0000   1.0000   1.0000   1.0000
     1.0000   1.0000   1.0000   1.0000   1.0000   1.0000   1.0000   1.0000
     1.0000   1.0000   1.0000   1.0000   1.0000   1.0000   1.0000   1.0000
     1.0000   1.0000   1.0000   1.0000   1.0000   1.0000   1.0000   1.0000
     1.0000   1.0000   1.0000   1.0000   1.0000   1.0000   1.0000   1.0000
     1.0000   1.0000   1.0000   1.0000   1.0000   1.0000   1.0000   1.0000
     1.0000   1.0000   1.0000   1.0000   1.0000   1.0000   1.0000   1.0000
     1.0000   1.0000  -0.0000   0.0000   0.0000   0.0000   0.0000   0.0000
     0.0000   0.0000   0.0000   0.0000   0.0000   0.0000   0.0000   0.0000
     0.0000   0.0000

          k =-0.0833 0.4167-0.0622 ( 10826 PWs)   bands (ev):

   -23.0420 -23.0346 -23.0211 -23.0161 -17.6669 -17.6315 -17.4117 -17.4088
   -17.2271 -17.1674 -17.0450 -17.0378 -17.0234 -17.0036 -16.9282 -16.9025
    -6.6626  -6.6211  -6.6182  -6.5729  -6.5676  -6.5600  -6.5555  -6.5385
    -6.5292  -6.5106  -6.4796  -6.4641  -2.9333  -2.9076  -2.0271  -1.9327
    -1.8966  -1.8906  -1.4732  -1.4677  -1.3584  -1.2356  -0.9596  -0.9537
    -0.9261  -0.9063  -0.8560  -0.7144  -0.5802  -0.5512  -0.5480  -0.4758
    -0.3560  -0.1979  -0.0799  -0.0085   1.0609   1.1343   1.2904   1.3778
     1.4590   1.5921   1.6993   1.7281   1.7895   1.8142   1.8818   1.8924
     1.9340   1.9508   2.0504   2.0662   2.0769   2.1804   2.1993   2.2282
     2.2804   2.3377   2.3703   2.3798   2.3842   2.4238   2.4653   2.6070
     2.8341   2.9544   6.4825   6.5449  10.0794  11.0219  12.0705  12.3704
    13.1570  13.2864  13.3290  13.4166  13.4919  13.5986  13.8521  14.1294
    14.4497  14.6014

     occupation numbers 
     1.0000   1.0000   1.0000   1.0000   1.0000   1.0000   1.0000   1.0000
     1.0000   1.0000   1.0000   1.0000   1.0000   1.0000   1.0000   1.0000
     1.0000   1.0000   1.0000   1.0000   1.0000   1.0000   1.0000   1.0000
     1.0000   1.0000   1.0000   1.0000   1.0000   1.0000   1.0000   1.0000
     1.0000   1.0000   1.0000   1.0000   1.0000   1.0000   1.0000   1.0000
     1.0000   1.0000   1.0000   1.0000   1.0000   1.0000   1.0000   1.0000
     1.0000   1.0000   1.0000   1.0000   1.0000   1.0000   1.0000   1.0000
     1.0000   1.0000   1.0000   1.0000   1.0000   1.0000   1.0000   1.0000
     1.0000   1.0000   1.0000   1.0000   1.0000   1.0000   1.0000   1.0000
     1.0000   1.0000   1.0000   1.0000   1.0000   1.0000   1.0000   1.0000
     1.0000   1.0000   0.0000   0.0000   0.0000   0.0000   0.0000   0.0000
     0.0000   0.0000   0.0000   0.0000   0.0000   0.0000   0.0000   0.0000
     0.0000   0.0000

          k =-0.0833 0.4167-0.1866 ( 10830 PWs)   bands (ev):

   -23.0392 -23.0321 -23.0240 -23.0186 -17.6407 -17.6068 -17.4610 -17.4464
   -17.2017 -17.1551 -17.0448 -17.0377 -17.0261 -17.0037 -16.9283 -16.9024
    -6.6457  -6.6109  -6.6105  -6.5739  -6.5697  -6.5622  -6.5541  -6.5447
    -6.5417  -6.5065  -6.4831  -6.4781  -2.8815  -2.8496  -1.9607  -1.8997
    -1.8791  -1.8476  -1.4352  -1.4332  -1.3533  -1.2353  -1.1120  -1.0532
    -1.0129  -0.9906  -0.8599  -0.7422  -0.7088  -0.6277  -0.5570  -0.5014
    -0.4009  -0.3107   0.0202   0.1051   1.1684   1.2658   1.3701   1.4403
     1.4875   1.6260   1.6533   1.7127   1.7881   1.8317   1.8565   1.8680
     1.9257   1.9412   1.9939   2.0153   2.0678   2.2101   2.2191   2.2662
     2.2794   2.3353   2.3605   2.3711   2.3789   2.4398   2.4785   2.6341
     2.8358   2.9628   6.4620   6.5428  10.2460  11.1313  11.5894  12.0480
    13.3322  13.4624  13.5558  13.6070  13.6256  13.6671  13.8665  14.0288
    14.4461  14.6610

     occupation numbers 
     1.0000   1.0000   1.0000   1.0000   1.0000   1.0000   1.0000   1.0000
     1.0000   1.0000   1.0000   1.0000   1.0000   1.0000   1.0000   1.0000
     1.0000   1.0000   1.0000   1.0000   1.0000   1.0000   1.0000   1.0000
     1.0000   1.0000   1.0000   1.0000   1.0000   1.0000   1.0000   1.0000
     1.0000   1.0000   1.0000   1.0000   1.0000   1.0000   1.0000   1.0000
     1.0000   1.0000   1.0000   1.0000   1.0000   1.0000   1.0000   1.0000
     1.0000   1.0000   1.0000   1.0000   1.0000   1.0000   1.0000   1.0000
     1.0000   1.0000   1.0000   1.0000   1.0000   1.0000   1.0000   1.0000
     1.0000   1.0000   1.0000   1.0000   1.0000   1.0000   1.0000   1.0000
     1.0000   1.0000   1.0000   1.0000   1.0000   1.0000   1.0000   1.0000
     1.0000   1.0000   0.0000   0.0000   0.0000   0.0000   0.0000   0.0000
     0.0000   0.0000   0.0000   0.0000   0.0000   0.0000   0.0000   0.0000
     0.0000   0.0000

          k =-0.0833 0.4167-0.3109 ( 10832 PWs)   bands (ev):

   -23.0344 -23.0288 -23.0278 -23.0228 -17.5934 -17.5628 -17.5259 -17.5015
   -17.1817 -17.1447 -17.0445 -17.0376 -17.0292 -17.0037 -16.9284 -16.9022
    -6.6165  -6.5988  -6.5936  -6.5843  -6.5812  -6.5696  -6.5648  -6.5588
    -6.5245  -6.5008  -6.4989  -6.4902  -2.8284  -2.7894  -1.8839  -1.8804
    -1.8141  -1.6993  -1.4014  -1.3921  -1.3660  -1.3357  -1.2996  -1.2336
    -1.0996  -1.0898  -0.8595  -0.8296  -0.7109  -0.6735  -0.5534  -0.5332
    -0.3893  -0.3504   0.0700   0.1543   1.2470   1.4346   1.4832   1.4993
     1.5624   1.5942   1.6789   1.6810   1.7555   1.8114   1.8308   1.8512
     1.8868   1.9104   1.9393   1.9739   2.0776   2.2056   2.2147   2.2573
     2.2859   2.3049   2.3648   2.3721   2.4067   2.4611   2.5318   2.6837
     2.8206   2.9710   6.4406   6.5409  10.5719  11.0450  11.3467  11.6753
    13.6118  13.6302  13.6700  13.7001  13.7646  13.8440  13.8660  13.9112
    14.5147  14.7399

     occupation numbers 
     1.0000   1.0000   1.0000   1.0000   1.0000   1.0000   1.0000   1.0000
     1.0000   1.0000   1.0000   1.0000   1.0000   1.0000   1.0000   1.0000
     1.0000   1.0000   1.0000   1.0000   1.0000   1.0000   1.0000   1.0000
     1.0000   1.0000   1.0000   1.0000   1.0000   1.0000   1.0000   1.0000
     1.0000   1.0000   1.0000   1.0000   1.0000   1.0000   1.0000   1.0000
     1.0000   1.0000   1.0000   1.0000   1.0000   1.0000   1.0000   1.0000
     1.0000   1.0000   1.0000   1.0000   1.0000   1.0000   1.0000   1.0000
     1.0000   1.0000   1.0000   1.0000   1.0000   1.0000   1.0000   1.0000
     1.0000   1.0000   1.0000   1.0000   1.0000   1.0000   1.0000   1.0000
     1.0000   1.0000   1.0000   1.0000   1.0000   1.0000   1.0000   1.0000
     1.0000   1.0000   0.0000   0.0000   0.0000   0.0000   0.0000   0.0000
     0.0000   0.0000   0.0000   0.0000   0.0000   0.0000   0.0000   0.0000
     0.0000   0.0000

          k =-0.2500 0.2500-0.0622 ( 10858 PWs)   bands (ev):

   -23.0457 -23.0309 -23.0238 -23.0138 -17.6845 -17.6135 -17.4136 -17.4076
   -17.2536 -17.1303 -17.0561 -17.0376 -17.0290 -16.9696 -16.9644 -16.8938
    -6.6828  -6.6420  -6.5995  -6.5780  -6.5604  -6.5550  -6.5522  -6.5437
    -6.5343  -6.4889  -6.4852  -6.4568  -2.9758  -2.9082  -2.1271  -1.9385
    -1.9115  -1.8915  -1.4741  -1.4629  -1.4147  -1.1650  -1.0107  -0.9513
    -0.9454  -0.9288  -0.9264  -0.6114  -0.5867  -0.5603  -0.4849  -0.4325
    -0.1935  -0.0556   0.1402   0.4056   0.5053   0.9408   1.2535   1.2847
     1.4178   1.5182   1.7747   1.7956   1.8325   1.8617   1.8641   1.8772
     1.8977   1.9844   1.9976   2.0352   2.0823   2.1155   2.1244   2.2259
     2.2815   2.3396   2.3709   2.3785   2.3982   2.4317   2.4901   2.5496
     2.8574   3.0758   6.4679   6.5986   9.7269  11.8932  11.9707  12.6372
    12.8681  13.0476  13.1930  13.2094  13.2451  13.4578  13.9749  14.2331
    14.4192  14.7125

     occupation numbers 
     1.0000   1.0000   1.0000   1.0000   1.0000   1.0000   1.0000   1.0000
     1.0000   1.0000   1.0000   1.0000   1.0000   1.0000   1.0000   1.0000
     1.0000   1.0000   1.0000   1.0000   1.0000   1.0000   1.0000   1.0000
     1.0000   1.0000   1.0000   1.0000   1.0000   1.0000   1.0000   1.0000
     1.0000   1.0000   1.0000   1.0000   1.0000   1.0000   1.0000   1.0000
     1.0000   1.0000   1.0000   1.0000   1.0000   1.0000   1.0000   1.0000
     1.0000   1.0000   1.0000   1.0000   1.0000   1.0000   1.0000   1.0000
     1.0000   1.0000   1.0000   1.0000   1.0000   1.0000   1.0000   1.0000
     1.0000   1.0000   1.0000   1.0000   1.0000   1.0000   1.0000   1.0000
     1.0000   1.0000   1.0000   1.0000   1.0000   1.0000   1.0000   1.0000
     1.0000   1.0000   0.0000   0.0000   0.0000   0.0000   0.0000   0.0000
     0.0000   0.0000   0.0000   0.0000   0.0000   0.0000   0.0000   0.0000
     0.0000   0.0000

          k =-0.2500 0.2500-0.1866 ( 10844 PWs)   bands (ev):

   -23.0428 -23.0285 -23.0268 -23.0159 -17.6577 -17.5898 -17.4696 -17.4401
   -17.2209 -17.1236 -17.0561 -17.0373 -17.0328 -16.9686 -16.9645 -16.8934
    -6.6604  -6.6314  -6.5931  -6.5703  -6.5680  -6.5655  -6.5509  -6.5439
    -6.5274  -6.4975  -6.4917  -6.4805  -2.9326  -2.8488  -2.0485  -1.8985
    -1.8847  -1.8630  -1.4484  -1.4325  -1.3979  -1.1936  -1.1647  -1.0248
    -1.0070  -1.0016  -0.9244  -0.7638  -0.6113  -0.6077  -0.5313  -0.5160
    -0.2613   0.0135   0.2131   0.4432   0.4806   1.1525   1.3431   1.3864
     1.4428   1.5889   1.7295   1.7554   1.8376   1.8603   1.8656   1.8777
     1.8969   1.9063   1.9736   2.0006   2.0647   2.1017   2.1371   2.2737
     2.3135   2.3263   2.3318   2.3681   2.3942   2.4845   2.5191   2.5304
     2.8488   3.1071   6.4367   6.5996   9.9199  11.4345  11.9633  12.5023
    12.9397  13.2106  13.2203  13.2948  13.4871  13.5946  14.0941  14.1060
    14.2864  14.7300

     occupation numbers 
     1.0000   1.0000   1.0000   1.0000   1.0000   1.0000   1.0000   1.0000
     1.0000   1.0000   1.0000   1.0000   1.0000   1.0000   1.0000   1.0000
     1.0000   1.0000   1.0000   1.0000   1.0000   1.0000   1.0000   1.0000
     1.0000   1.0000   1.0000   1.0000   1.0000   1.0000   1.0000   1.0000
     1.0000   1.0000   1.0000   1.0000   1.0000   1.0000   1.0000   1.0000
     1.0000   1.0000   1.0000   1.0000   1.0000   1.0000   1.0000   1.0000
     1.0000   1.0000   1.0000   1.0000   1.0000   1.0000   1.0000   1.0000
     1.0000   1.0000   1.0000   1.0000   1.0000   1.0000   1.0000   1.0000
     1.0000   1.0000   1.0000   1.0000   1.0000   1.0000   1.0000   1.0000
     1.0000   1.0000   1.0000   1.0000   1.0000   1.0000   1.0000   1.0000
     1.0000   1.0000  -0.0000   0.0000   0.0000   0.0000   0.0000   0.0000
     0.0000   0.0000   0.0000   0.0000   0.0000   0.0000   0.0000   0.0000
     0.0000   0.0000

          k =-0.2500 0.2500-0.3109 ( 10829 PWs)   bands (ev):

   -23.0377 -23.0319 -23.0244 -23.0198 -17.6091 -17.5478 -17.5387 -17.4900
   -17.1964 -17.1177 -17.0561 -17.0380 -17.0361 -16.9676 -16.9645 -16.8930
    -6.6236  -6.6131  -6.5933  -6.5881  -6.5761  -6.5632  -6.5482  -6.5293
    -6.5173  -6.5156  -6.5124  -6.5023  -2.8897  -2.7869  -1.9061  -1.8856
    -1.8713  -1.6973  -1.4680  -1.4395  -1.3654  -1.3626  -1.2886  -1.1644
    -1.0982  -1.0762  -0.9235  -0.8571  -0.6231  -0.6112  -0.5729  -0.5474
    -0.3042   0.0648   0.2993   0.4368   0.4707   1.3478   1.4417   1.4759
     1.5459   1.6305   1.6850   1.7151   1.7500   1.8189   1.8544   1.8828
     1.8943   1.9115   1.9203   2.0258   2.0473   2.0849   2.1432   2.2606
     2.2842   2.2953   2.3405   2.3713   2.4157   2.4654   2.5052   2.6614
     2.8136   3.1413   6.4024   6.6022  10.2939  10.8275  12.0892  12.3108
    13.0450  13.1430  13.4400  13.5499  13.5678  13.8083  13.8921  14.0535
    14.3835  14.7202

     occupation numbers 
     1.0000   1.0000   1.0000   1.0000   1.0000   1.0000   1.0000   1.0000
     1.0000   1.0000   1.0000   1.0000   1.0000   1.0000   1.0000   1.0000
     1.0000   1.0000   1.0000   1.0000   1.0000   1.0000   1.0000   1.0000
     1.0000   1.0000   1.0000   1.0000   1.0000   1.0000   1.0000   1.0000
     1.0000   1.0000   1.0000   1.0000   1.0000   1.0000   1.0000   1.0000
     1.0000   1.0000   1.0000   1.0000   1.0000   1.0000   1.0000   1.0000
     1.0000   1.0000   1.0000   1.0000   1.0000   1.0000   1.0000   1.0000
     1.0000   1.0000   1.0000   1.0000   1.0000   1.0000   1.0000   1.0000
     1.0000   1.0000   1.0000   1.0000   1.0000   1.0000   1.0000   1.0000
     1.0000   1.0000   1.0000   1.0000   1.0000   1.0000   1.0000   1.0000
     1.0000   1.0000  -0.0000   0.0000   0.0000   0.0000   0.0000   0.0000
     0.0000   0.0000   0.0000   0.0000   0.0000   0.0000   0.0000   0.0000
     0.0000   0.0000

          k =-0.2500 0.4167-0.0622 ( 10843 PWs)   bands (ev):

   -23.0403 -23.0349 -23.0207 -23.0171 -17.6655 -17.6395 -17.4133 -17.4112
   -17.2123 -17.1661 -17.0512 -17.0427 -17.0128 -16.9905 -16.9430 -16.9163
    -6.6524  -6.6221  -6.6142  -6.5814  -6.5524  -6.5461  -6.5345  -6.5270
    -6.5207  -6.4866  -6.4791  -6.4673  -2.9584  -2.9271  -2.0941  -2.0148
    -1.9264  -1.9158  -1.4888  -1.4815  -1.3307  -1.2401  -0.9846  -0.9466
    -0.9428  -0.8920  -0.8237  -0.7073  -0.5676  -0.5128  -0.5058  -0.2956
    -0.1630  -0.1366  -0.0012   0.2284   0.8548   0.9973   1.1874   1.2538
     1.4823   1.6243   1.7119   1.7439   1.7783   1.8045   1.8490   1.8518
     1.8702   1.8855   2.0311   2.0444   2.0670   2.1247   2.1623   2.1817
     2.2529   2.3014   2.3502   2.3637   2.3749   2.4271   2.4502   2.5187
     2.8754   2.9271   6.4950   6.5430  10.4426  11.2799  12.2780  12.5460
    12.8367  13.0056  13.4084  13.5601  13.6877  13.7011  13.7970  14.2433
    14.5209  14.5293

     occupation numbers 
     1.0000   1.0000   1.0000   1.0000   1.0000   1.0000   1.0000   1.0000
     1.0000   1.0000   1.0000   1.0000   1.0000   1.0000   1.0000   1.0000
     1.0000   1.0000   1.0000   1.0000   1.0000   1.0000   1.0000   1.0000
     1.0000   1.0000   1.0000   1.0000   1.0000   1.0000   1.0000   1.0000
     1.0000   1.0000   1.0000   1.0000   1.0000   1.0000   1.0000   1.0000
     1.0000   1.0000   1.0000   1.0000   1.0000   1.0000   1.0000   1.0000
     1.0000   1.0000   1.0000   1.0000   1.0000   1.0000   1.0000   1.0000
     1.0000   1.0000   1.0000   1.0000   1.0000   1.0000   1.0000   1.0000
     1.0000   1.0000   1.0000   1.0000   1.0000   1.0000   1.0000   1.0000
     1.0000   1.0000   1.0000   1.0000   1.0000   1.0000   1.0000   1.0000
     1.0000   1.0000   0.0000   0.0000   0.0000   0.0000   0.0000   0.0000
     0.0000   0.0000   0.0000   0.0000   0.0000   0.0000   0.0000   0.0000
     0.0000   0.0000

          k =-0.2500 0.4167-0.1866 ( 10828 PWs)   bands (ev):

   -23.0376 -23.0324 -23.0232 -23.0193 -17.6391 -17.6143 -17.4604 -17.4498
   -17.1903 -17.1537 -17.0511 -17.0425 -17.0146 -16.9904 -16.9427 -16.9160
    -6.6339  -6.6101  -6.6046  -6.5716  -6.5598  -6.5527  -6.5435  -6.5294
    -6.5179  -6.4905  -6.4893  -6.4827  -2.9117  -2.8729  -2.0164  -1.9445
    -1.9078  -1.9006  -1.4521  -1.4511  -1.3278  -1.2397  -1.1672  -1.0824
    -1.0137  -1.0066  -0.8230  -0.7080  -0.6416  -0.5618  -0.4813  -0.4201
    -0.2971  -0.0960   0.1120   0.3074   0.8914   1.1435   1.2792   1.3314
     1.4965   1.6394   1.6591   1.7355   1.7667   1.8171   1.8460   1.8538
     1.8626   1.8849   1.9563   1.9838   2.0670   2.1606   2.1980   2.2039
     2.2962   2.3082   2.3353   2.3727   2.3870   2.4082   2.4606   2.4802
     2.8898   2.9698   6.4742   6.5319  10.5992  11.3914  11.8538  12.2800
    12.9547  13.1606  13.5059  13.5827  13.7017  13.8268  13.9573  14.1876
    14.5305  14.5707

     occupation numbers 
     1.0000   1.0000   1.0000   1.0000   1.0000   1.0000   1.0000   1.0000
     1.0000   1.0000   1.0000   1.0000   1.0000   1.0000   1.0000   1.0000
     1.0000   1.0000   1.0000   1.0000   1.0000   1.0000   1.0000   1.0000
     1.0000   1.0000   1.0000   1.0000   1.0000   1.0000   1.0000   1.0000
     1.0000   1.0000   1.0000   1.0000   1.0000   1.0000   1.0000   1.0000
     1.0000   1.0000   1.0000   1.0000   1.0000   1.0000   1.0000   1.0000
     1.0000   1.0000   1.0000   1.0000   1.0000   1.0000   1.0000   1.0000
     1.0000   1.0000   1.0000   1.0000   1.0000   1.0000   1.0000   1.0000
     1.0000   1.0000   1.0000   1.0000   1.0000   1.0000   1.0000   1.0000
     1.0000   1.0000   1.0000   1.0000   1.0000   1.0000   1.0000   1.0000
     1.0000   1.0000   0.0000   0.0000   0.0000   0.0000   0.0000   0.0000
     0.0000   0.0000   0.0000   0.0000   0.0000   0.0000   0.0000   0.0000
     0.0000   0.0000

          k =-0.2500 0.4167-0.3109 ( 10817 PWs)   bands (ev):

   -23.0330 -23.0281 -23.0277 -23.0233 -17.5916 -17.5692 -17.5242 -17.5065
   -17.1726 -17.1432 -17.0510 -17.0423 -17.0166 -16.9903 -16.9424 -16.9157
    -6.6036  -6.5906  -6.5874  -6.5759  -6.5683  -6.5631  -6.5539  -6.5367
    -6.5125  -6.5017  -6.4983  -6.4960  -2.8650  -2.8174  -1.8975  -1.8962
    -1.8553  -1.7812  -1.4469  -1.4156  -1.3917  -1.3652  -1.3199  -1.2385
    -1.1011  -1.0881  -0.8221  -0.7082  -0.6880  -0.6059  -0.4935  -0.4385
    -0.3723  -0.0638   0.1693   0.3526   0.9213   1.3069   1.4016   1.4114
     1.5159   1.5557   1.6865   1.6940   1.7564   1.8104   1.8226   1.8594
     1.8716   1.8755   1.8997   1.9442   2.0755   2.1923   2.2052   2.2284
     2.2903   2.3006   2.3174   2.3618   2.3983   2.4073   2.4360   2.5279
     2.9040   3.0161   6.4515   6.5215  10.9042  11.3511  11.6063  11.9360
    13.1549  13.3760  13.4132  13.6312  13.7586  14.0357  14.0631  14.0976
    14.4555  14.5284

     occupation numbers 
     1.0000   1.0000   1.0000   1.0000   1.0000   1.0000   1.0000   1.0000
     1.0000   1.0000   1.0000   1.0000   1.0000   1.0000   1.0000   1.0000
     1.0000   1.0000   1.0000   1.0000   1.0000   1.0000   1.0000   1.0000
     1.0000   1.0000   1.0000   1.0000   1.0000   1.0000   1.0000   1.0000
     1.0000   1.0000   1.0000   1.0000   1.0000   1.0000   1.0000   1.0000
     1.0000   1.0000   1.0000   1.0000   1.0000   1.0000   1.0000   1.0000
     1.0000   1.0000   1.0000   1.0000   1.0000   1.0000   1.0000   1.0000
     1.0000   1.0000   1.0000   1.0000   1.0000   1.0000   1.0000   1.0000
     1.0000   1.0000   1.0000   1.0000   1.0000   1.0000   1.0000   1.0000
     1.0000   1.0000   1.0000   1.0000   1.0000   1.0000   1.0000   1.0000
     1.0000   1.0000   0.0000   0.0000   0.0000   0.0000   0.0000   0.0000
     0.0000   0.0000   0.0000   0.0000   0.0000   0.0000   0.0000   0.0000
     0.0000   0.0000

          k =-0.4167 0.4167-0.0622 ( 10810 PWs)   bands (ev):

   -23.0379 -23.0359 -23.0198 -23.0185 -17.6607 -17.6512 -17.4146 -17.4139
   -17.1897 -17.1716 -17.0551 -17.0507 -16.9929 -16.9713 -16.9630 -16.9397
    -6.6383  -6.6272  -6.6050  -6.5931  -6.5400  -6.5378  -6.5248  -6.5217
    -6.4809  -6.4769  -6.4725  -6.4680  -2.9724  -2.9570  -2.1287  -2.1008
    -1.9529  -1.9471  -1.5003  -1.4962  -1.2920  -1.2590  -1.0198  -0.9797
    -0.9410  -0.9381  -0.7702  -0.7261  -0.5144  -0.4974  -0.2198  -0.2164
    -0.1382   0.1664   0.1750   0.4025   0.5948   0.8144   1.1047   1.1143
     1.5234   1.6661   1.6794   1.7177   1.7773   1.7879   1.7952   1.8138
     1.8184   1.8311   1.9193   1.9953   2.0545   2.0590   2.0725   2.1128
     2.2027   2.2313   2.3734   2.3766   2.3879   2.4075   2.5129   2.5392
     2.8802   2.8983   6.5163   6.5352  11.0298  11.4868  12.3557  12.5409
    12.5995  12.6798  13.4950  13.6036  13.8946  13.9345  14.3136  14.3217
    14.3394  14.6618

     occupation numbers 
     1.0000   1.0000   1.0000   1.0000   1.0000   1.0000   1.0000   1.0000
     1.0000   1.0000   1.0000   1.0000   1.0000   1.0000   1.0000   1.0000
     1.0000   1.0000   1.0000   1.0000   1.0000   1.0000   1.0000   1.0000
     1.0000   1.0000   1.0000   1.0000   1.0000   1.0000   1.0000   1.0000
     1.0000   1.0000   1.0000   1.0000   1.0000   1.0000   1.0000   1.0000
     1.0000   1.0000   1.0000   1.0000   1.0000   1.0000   1.0000   1.0000
     1.0000   1.0000   1.0000   1.0000   1.0000   1.0000   1.0000   1.0000
     1.0000   1.0000   1.0000   1.0000   1.0000   1.0000   1.0000   1.0000
     1.0000   1.0000   1.0000   1.0000   1.0000   1.0000   1.0000   1.0000
     1.0000   1.0000   1.0000   1.0000   1.0000   1.0000   1.0000   1.0000
     1.0000   1.0000   0.0000   0.0000   0.0000   0.0000   0.0000   0.0000
     0.0000   0.0000   0.0000   0.0000   0.0000   0.0000   0.0000   0.0000
     0.0000   0.0000

          k =-0.4167 0.4167-0.1866 ( 10835 PWs)   bands (ev):

   -23.0354 -23.0334 -23.0220 -23.0205 -17.6343 -17.6253 -17.4584 -17.4546
   -17.1723 -17.1577 -17.0551 -17.0506 -16.9935 -16.9707 -16.9632 -16.9394
    -6.6181  -6.6107  -6.5964  -6.5830  -6.5488  -6.5467  -6.5242  -6.5146
    -6.4962  -6.4902  -6.4855  -6.4754  -2.9280  -2.9093  -2.0457  -2.0204
    -1.9318  -1.9264  -1.4680  -1.4671  -1.2909  -1.2583  -1.1988  -1.1631
    -1.0127  -1.0094  -0.7697  -0.7264  -0.5686  -0.5492  -0.3678  -0.3389
    -0.0913   0.2517   0.3011   0.4738   0.5614   0.8924   1.2002   1.2048
     1.5329   1.6286   1.6533   1.6694   1.7717   1.8041   1.8203   1.8205
     1.8409   1.8461   1.9377   1.9455   2.0490   2.0630   2.0744   2.1900
     2.2096   2.2382   2.3575   2.3648   2.3819   2.4065   2.4689   2.4978
     2.9320   2.9608   6.4944   6.5155  11.1680  11.5997  12.2394  12.4573
    12.5046  12.7460  13.5503  13.6296  13.6755  13.7445  14.3978  14.4185
    14.4669  14.7207

     occupation numbers 
     1.0000   1.0000   1.0000   1.0000   1.0000   1.0000   1.0000   1.0000
     1.0000   1.0000   1.0000   1.0000   1.0000   1.0000   1.0000   1.0000
     1.0000   1.0000   1.0000   1.0000   1.0000   1.0000   1.0000   1.0000
     1.0000   1.0000   1.0000   1.0000   1.0000   1.0000   1.0000   1.0000
     1.0000   1.0000   1.0000   1.0000   1.0000   1.0000   1.0000   1.0000
     1.0000   1.0000   1.0000   1.0000   1.0000   1.0000   1.0000   1.0000
     1.0000   1.0000   1.0000   1.0000   1.0000   1.0000   1.0000   1.0000
     1.0000   1.0000   1.0000   1.0000   1.0000   1.0000   1.0000   1.0000
     1.0000   1.0000   1.0000   1.0000   1.0000   1.0000   1.0000   1.0000
     1.0000   1.0000   1.0000   1.0000   1.0000   1.0000   1.0000   1.0000
     1.0000   1.0000   0.0000   0.0000   0.0000   0.0000   0.0000   0.0000
     0.0000   0.0000   0.0000   0.0000   0.0000   0.0000   0.0000   0.0000
     0.0000   0.0000

          k =-0.4167 0.4167-0.3109 ( 10824 PWs)   bands (ev):

   -23.0310 -23.0292 -23.0260 -23.0244 -17.5868 -17.5787 -17.5202 -17.5138
   -17.1581 -17.1461 -17.0550 -17.0504 -16.9941 -16.9700 -16.9634 -16.9391
    -6.5852  -6.5828  -6.5815  -6.5642  -6.5629  -6.5611  -6.5435  -6.5284
    -6.5024  -6.5000  -6.4932  -6.4879  -2.8840  -2.8616  -1.9105  -1.9097
    -1.8779  -1.8553  -1.4754  -1.4430  -1.4282  -1.4214  -1.2888  -1.2577
    -1.0968  -1.0896  -0.7695  -0.7267  -0.6147  -0.5955  -0.4387  -0.4040
    -0.0585   0.3576   0.3703   0.5009   0.5176   0.9590   1.3305   1.3412
     1.4869   1.5108   1.6457   1.6601   1.7920   1.8166   1.8215   1.8379
     1.8563   1.8598   1.8969   1.9804   2.0337   2.0582   2.0871   2.2165
     2.2422   2.2461   2.3452   2.3598   2.3744   2.4069   2.4168   2.4473
     2.9875   3.0263   6.4710   6.4958  11.4329  11.8113  11.8289  12.1480
    12.7808  13.0195  13.1456  13.3572  13.8884  14.0098  14.2162  14.3278
    14.5428  14.6630

     occupation numbers 
     1.0000   1.0000   1.0000   1.0000   1.0000   1.0000   1.0000   1.0000
     1.0000   1.0000   1.0000   1.0000   1.0000   1.0000   1.0000   1.0000
     1.0000   1.0000   1.0000   1.0000   1.0000   1.0000   1.0000   1.0000
     1.0000   1.0000   1.0000   1.0000   1.0000   1.0000   1.0000   1.0000
     1.0000   1.0000   1.0000   1.0000   1.0000   1.0000   1.0000   1.0000
     1.0000   1.0000   1.0000   1.0000   1.0000   1.0000   1.0000   1.0000
     1.0000   1.0000   1.0000   1.0000   1.0000   1.0000   1.0000   1.0000
     1.0000   1.0000   1.0000   1.0000   1.0000   1.0000   1.0000   1.0000
     1.0000   1.0000   1.0000   1.0000   1.0000   1.0000   1.0000   1.0000
     1.0000   1.0000   1.0000   1.0000   1.0000   1.0000   1.0000   1.0000
     1.0000   1.0000   0.0000   0.0000   0.0000   0.0000   0.0000   0.0000
     0.0000   0.0000   0.0000   0.0000   0.0000   0.0000   0.0000   0.0000
     0.0000   0.0000

 ------ SPIN DOWN ----------


          k = 0.0833 0.0833 0.0622 ( 10859 PWs)   bands (ev):

   -23.0535 -23.0285 -23.0265 -23.0094 -17.7086 -17.5755 -17.4151 -17.4015
   -17.3045 -17.0792 -17.0575 -17.0466 -17.0442 -16.9655 -16.9645 -16.8689
    -6.7268  -6.6804  -6.6719  -6.5839  -6.5823  -6.5668  -6.5486  -6.5472
    -6.5109  -6.5020  -6.5019  -6.4426  -2.9993  -2.9220  -2.1676  -2.0099
    -1.8787  -1.8725  -1.5391  -1.4288  -1.4254  -1.0574  -1.0557  -1.0461
    -0.9554  -0.9483  -0.9071  -0.5379  -0.4792  -0.4714  -0.4640  -0.2578
    -0.1269   0.0956   0.1188   0.2981   0.3816   0.7723   0.9762   1.3521
     1.3965   1.4245   1.8257   1.8560   1.8750   1.8804   1.8995   1.9006
     1.9989   2.0304   2.0321   2.0883   2.1000   2.1139   2.1194   2.1923
     2.2035   2.3072   2.3114   2.5292   2.5471   2.5598   2.5848   2.6247
     2.6701   3.4590   6.4573   6.7184   8.8610  11.5788  12.4693  12.6330
    12.6937  12.7262  12.7610  12.8843  12.9750  13.6498  13.8553  14.1835
    14.2309  14.3725

     occupation numbers 
     1.0000   1.0000   1.0000   1.0000   1.0000   1.0000   1.0000   1.0000
     1.0000   1.0000   1.0000   1.0000   1.0000   1.0000   1.0000   1.0000
     1.0000   1.0000   1.0000   1.0000   1.0000   1.0000   1.0000   1.0000
     1.0000   1.0000   1.0000   1.0000   1.0000   1.0000   1.0000   1.0000
     1.0000   1.0000   1.0000   1.0000   1.0000   1.0000   1.0000   1.0000
     1.0000   1.0000   1.0000   1.0000   1.0000   1.0000   1.0000   1.0000
     1.0000   1.0000   1.0000   1.0000   1.0000   1.0000   1.0000   1.0000
     1.0000   1.0000   1.0000   1.0000   1.0000   1.0000   1.0000   1.0000
     1.0000   1.0000   1.0000   1.0000   1.0000   1.0000   1.0000   1.0000
     1.0000   1.0000   1.0000   1.0000   1.0000   1.0000   1.0000   1.0000
     1.0000   1.0000   0.0000   0.0000   0.0000   0.0000   0.0000   0.0000
     0.0000   0.0000   0.0000   0.0000   0.0000   0.0000   0.0000   0.0000
     0.0000   0.0000

          k = 0.0833 0.0833 0.1866 ( 10843 PWs)   bands (ev):

   -23.0501 -23.0318 -23.0241 -23.0116 -17.6817 -17.5543 -17.4845 -17.4266
   -17.2560 -17.0773 -17.0572 -17.0522 -17.0442 -16.9656 -16.9649 -16.8680
    -6.6945  -6.6671  -6.6555  -6.5965  -6.5956  -6.5601  -6.5454  -6.5409
    -6.5140  -6.5088  -6.5077  -6.4811  -2.9582  -2.8668  -2.0942  -1.9157
    -1.8707  -1.8634  -1.5316  -1.3981  -1.3964  -1.2503  -1.0595  -1.0573
    -1.0313  -0.9988  -0.9843  -0.5760  -0.5387  -0.5133  -0.4639  -0.4531
    -0.2593   0.1552   0.1882   0.3182   0.3668   1.0050   1.1004   1.4445
     1.4815   1.5150   1.8245   1.8456   1.8646   1.8709   1.9048   1.9153
     1.9718   1.9936   2.0126   2.0346   2.0965   2.1187   2.1208   2.1805
     2.2047   2.3048   2.3144   2.4671   2.4991   2.5531   2.6255   2.6309
     2.6943   3.4680   6.4039   6.7372   9.1078  10.9379  12.4878  12.6440
    12.8543  12.9016  12.9575  13.0676  13.1166  13.6082  13.7221  13.9177
    14.2392  14.4513

     occupation numbers 
     1.0000   1.0000   1.0000   1.0000   1.0000   1.0000   1.0000   1.0000
     1.0000   1.0000   1.0000   1.0000   1.0000   1.0000   1.0000   1.0000
     1.0000   1.0000   1.0000   1.0000   1.0000   1.0000   1.0000   1.0000
     1.0000   1.0000   1.0000   1.0000   1.0000   1.0000   1.0000   1.0000
     1.0000   1.0000   1.0000   1.0000   1.0000   1.0000   1.0000   1.0000
     1.0000   1.0000   1.0000   1.0000   1.0000   1.0000   1.0000   1.0000
     1.0000   1.0000   1.0000   1.0000   1.0000   1.0000   1.0000   1.0000
     1.0000   1.0000   1.0000   1.0000   1.0000   1.0000   1.0000   1.0000
     1.0000   1.0000   1.0000   1.0000   1.0000   1.0000   1.0000   1.0000
     1.0000   1.0000   1.0000   1.0000   1.0000   1.0000   1.0000   1.0000
     1.0000   1.0000   0.0000   0.0000   0.0000   0.0000   0.0000   0.0000
     0.0000   0.0000   0.0000   0.0000   0.0000   0.0000   0.0000   0.0000
     0.0000   0.0000

          k = 0.0833 0.0833 0.3109 ( 10871 PWs)   bands (ev):

   -23.0444 -23.0377 -23.0200 -23.0155 -17.6326 -17.5589 -17.5178 -17.4669
   -17.2236 -17.0756 -17.0597 -17.0568 -17.0435 -16.9657 -16.9653 -16.8673
    -6.6505  -6.6445  -6.6191  -6.6187  -6.6144  -6.5494  -6.5461  -6.5429
    -6.5301  -6.5185  -6.5178  -6.5175  -2.9173  -2.8118  -1.9573  -1.8626
    -1.8596  -1.6944  -1.5240  -1.5093  -1.3633  -1.3594  -1.3172  -1.0705
    -1.0655  -1.0573  -1.0495  -0.6926  -0.6083  -0.5509  -0.4643  -0.4638
    -0.2603   0.2216   0.2371   0.3176   0.3400   1.0436   1.3162   1.5808
     1.6031   1.6391   1.7619   1.7798   1.8715   1.8806   1.8927   1.9025
     1.9345   1.9649   1.9872   1.9878   2.0923   2.1136   2.1246   2.1699
     2.2228   2.3158   2.3343   2.3909   2.4262   2.5538   2.6256   2.6622
     2.7354   3.4767   6.3480   6.7551   9.5772  10.2203  12.5151  12.6147
    13.0882  13.1359  13.1794  13.2453  13.3218  13.3776  13.4830  13.5829
    14.5253  14.6265

     occupation numbers 
     1.0000   1.0000   1.0000   1.0000   1.0000   1.0000   1.0000   1.0000
     1.0000   1.0000   1.0000   1.0000   1.0000   1.0000   1.0000   1.0000
     1.0000   1.0000   1.0000   1.0000   1.0000   1.0000   1.0000   1.0000
     1.0000   1.0000   1.0000   1.0000   1.0000   1.0000   1.0000   1.0000
     1.0000   1.0000   1.0000   1.0000   1.0000   1.0000   1.0000   1.0000
     1.0000   1.0000   1.0000   1.0000   1.0000   1.0000   1.0000   1.0000
     1.0000   1.0000   1.0000   1.0000   1.0000   1.0000   1.0000   1.0000
     1.0000   1.0000   1.0000   1.0000   1.0000   1.0000   1.0000   1.0000
     1.0000   1.0000   1.0000   1.0000   1.0000   1.0000   1.0000   1.0000
     1.0000   1.0000   1.0000   1.0000   1.0000   1.0000   1.0000   1.0000
     1.0000   1.0000   0.0000   0.0000   0.0000   0.0000   0.0000   0.0000
     0.0000   0.0000   0.0000   0.0000   0.0000   0.0000   0.0000   0.0000
     0.0000   0.0000

          k = 0.0833 0.2500 0.0622 ( 10833 PWs)   bands (ev):

   -23.0491 -23.0291 -23.0257 -23.0119 -17.6942 -17.5970 -17.4135 -17.4047
   -17.2772 -17.1144 -17.0532 -17.0389 -17.0361 -16.9813 -16.9513 -16.8810
    -6.7023  -6.6576  -6.6224  -6.5899  -6.5737  -6.5625  -6.5520  -6.5366
    -6.5336  -6.4978  -6.4938  -6.4506  -2.9728  -2.9094  -2.1211  -1.9423
    -1.8905  -1.8786  -1.4721  -1.4523  -1.4428  -1.1250  -1.0016  -0.9877
    -0.9560  -0.9489  -0.8498  -0.7382  -0.5605  -0.5248  -0.4942  -0.2894
    -0.2120  -0.1217   0.0050   0.1959   0.7233   0.9844   1.1673   1.3411
     1.4162   1.4580   1.7946   1.8201   1.8446   1.8679   1.8911   1.9075
     1.9426   1.9559   2.0357   2.0507   2.0911   2.1239   2.1499   2.2161
     2.2637   2.3167   2.3304   2.4484   2.4600   2.5152   2.5376   2.6132
     2.7790   3.2312   6.4603   6.6409   9.3073  11.7673  11.9451  12.5656
    12.9003  12.9390  13.0731  13.1397  13.1835  13.3864  14.0556  14.1232
    14.3328  14.4904

     occupation numbers 
     1.0000   1.0000   1.0000   1.0000   1.0000   1.0000   1.0000   1.0000
     1.0000   1.0000   1.0000   1.0000   1.0000   1.0000   1.0000   1.0000
     1.0000   1.0000   1.0000   1.0000   1.0000   1.0000   1.0000   1.0000
     1.0000   1.0000   1.0000   1.0000   1.0000   1.0000   1.0000   1.0000
     1.0000   1.0000   1.0000   1.0000   1.0000   1.0000   1.0000   1.0000
     1.0000   1.0000   1.0000   1.0000   1.0000   1.0000   1.0000   1.0000
     1.0000   1.0000   1.0000   1.0000   1.0000   1.0000   1.0000   1.0000
     1.0000   1.0000   1.0000   1.0000   1.0000   1.0000   1.0000   1.0000
     1.0000   1.0000   1.0000   1.0000   1.0000   1.0000   1.0000   1.0000
     1.0000   1.0000   1.0000   1.0000   1.0000   1.0000   1.0000   1.0000
     1.0000   1.0000   0.0000   0.0000   0.0000   0.0000   0.0000   0.0000
     0.0000   0.0000   0.0000   0.0000   0.0000   0.0000   0.0000   0.0000
     0.0000   0.0000

          k = 0.0833 0.2500 0.1866 ( 10846 PWs)   bands (ev):

   -23.0460 -23.0289 -23.0267 -23.0141 -17.6673 -17.5744 -17.4752 -17.4340
   -17.2375 -17.1099 -17.0530 -17.0433 -17.0365 -16.9807 -16.9515 -16.8805
    -6.6782  -6.6465  -6.6064  -6.5915  -6.5778  -6.5746  -6.5506  -6.5387
    -6.5336  -6.4998  -6.4973  -6.4795  -2.9281  -2.8510  -2.0492  -1.8905
    -1.8737  -1.8462  -1.4729  -1.4146  -1.4061  -1.1982  -1.1249  -1.0377
    -1.0122  -0.9794  -0.9134  -0.7942  -0.6210  -0.5604  -0.5514  -0.4976
    -0.2505  -0.0817   0.0798   0.2579   0.7510   1.1729   1.2661   1.4200
     1.4560   1.5542   1.7616   1.7877   1.8404   1.8659   1.8766   1.8959
     1.9268   1.9477   1.9976   2.0345   2.0528   2.1278   2.1737   2.2560
     2.2792   2.3186   2.3396   2.3919   2.4353   2.4901   2.5387   2.6607
     2.7856   3.2436   6.4202   6.6523   9.5229  11.1795  11.9958  12.4293
    13.0581  13.1719  13.2249  13.2964  13.3430  13.4302  13.9017  14.0168
    14.3216  14.5469

     occupation numbers 
     1.0000   1.0000   1.0000   1.0000   1.0000   1.0000   1.0000   1.0000
     1.0000   1.0000   1.0000   1.0000   1.0000   1.0000   1.0000   1.0000
     1.0000   1.0000   1.0000   1.0000   1.0000   1.0000   1.0000   1.0000
     1.0000   1.0000   1.0000   1.0000   1.0000   1.0000   1.0000   1.0000
     1.0000   1.0000   1.0000   1.0000   1.0000   1.0000   1.0000   1.0000
     1.0000   1.0000   1.0000   1.0000   1.0000   1.0000   1.0000   1.0000
     1.0000   1.0000   1.0000   1.0000   1.0000   1.0000   1.0000   1.0000
     1.0000   1.0000   1.0000   1.0000   1.0000   1.0000   1.0000   1.0000
     1.0000   1.0000   1.0000   1.0000   1.0000   1.0000   1.0000   1.0000
     1.0000   1.0000   1.0000   1.0000   1.0000   1.0000   1.0000   1.0000
     1.0000   1.0000   0.0000   0.0000   0.0000   0.0000   0.0000   0.0000
     0.0000   0.0000   0.0000   0.0000   0.0000   0.0000   0.0000   0.0000
     0.0000   0.0000

          k = 0.0833 0.2500 0.3109 ( 10861 PWs)   bands (ev):

   -23.0406 -23.0344 -23.0226 -23.0180 -17.6185 -17.5468 -17.5347 -17.4798
   -17.2092 -17.1059 -17.0526 -17.0491 -17.0363 -16.9800 -16.9517 -16.8800
    -6.6400  -6.6277  -6.6070  -6.6036  -6.5744  -6.5666  -6.5553  -6.5373
    -6.5368  -6.5248  -6.5019  -6.5010  -2.8833  -2.7912  -1.9142  -1.8757
    -1.8648  -1.6628  -1.4730  -1.4593  -1.3651  -1.3592  -1.2692  -1.1248
    -1.0850  -1.0717  -0.9825  -0.8326  -0.6821  -0.5923  -0.5606  -0.5334
    -0.2673  -0.0496   0.1200   0.2915   0.7673   1.2759   1.4068   1.5424
     1.5614   1.6710   1.6833   1.7125   1.8131   1.8407   1.8723   1.8906
     1.9017   1.9454   1.9631   2.0052   2.0274   2.1378   2.1816   2.2577
     2.2918   2.3155   2.3498   2.3790   2.3857   2.4876   2.5397   2.7240
     2.7786   3.2562   6.3780   6.6638   9.9380  10.5200  12.0915  12.2649
    13.2745  13.3546  13.4077  13.4099  13.4675  13.5560  13.6705  13.7888
    14.5340  14.6605

     occupation numbers 
     1.0000   1.0000   1.0000   1.0000   1.0000   1.0000   1.0000   1.0000
     1.0000   1.0000   1.0000   1.0000   1.0000   1.0000   1.0000   1.0000
     1.0000   1.0000   1.0000   1.0000   1.0000   1.0000   1.0000   1.0000
     1.0000   1.0000   1.0000   1.0000   1.0000   1.0000   1.0000   1.0000
     1.0000   1.0000   1.0000   1.0000   1.0000   1.0000   1.0000   1.0000
     1.0000   1.0000   1.0000   1.0000   1.0000   1.0000   1.0000   1.0000
     1.0000   1.0000   1.0000   1.0000   1.0000   1.0000   1.0000   1.0000
     1.0000   1.0000   1.0000   1.0000   1.0000   1.0000   1.0000   1.0000
     1.0000   1.0000   1.0000   1.0000   1.0000   1.0000   1.0000   1.0000
     1.0000   1.0000   1.0000   1.0000   1.0000   1.0000   1.0000   1.0000
     1.0000   1.0000   0.0000   0.0000   0.0000   0.0000   0.0000   0.0000
     0.0000   0.0000   0.0000   0.0000   0.0000   0.0000   0.0000   0.0000
     0.0000   0.0000

          k = 0.0833 0.4167 0.0622 ( 10826 PWs)   bands (ev):

   -23.0420 -23.0346 -23.0211 -23.0161 -17.6669 -17.6315 -17.4117 -17.4088
   -17.2270 -17.1674 -17.0448 -17.0378 -17.0234 -17.0036 -16.9283 -16.9026
    -6.6626  -6.6211  -6.6182  -6.5729  -6.5676  -6.5600  -6.5555  -6.5385
    -6.5292  -6.5106  -6.4796  -6.4641  -2.9342  -2.9083  -2.0275  -1.9331
    -1.8978  -1.8914  -1.4727  -1.4673  -1.3595  -1.2367  -0.9603  -0.9541
    -0.9266  -0.9061  -0.8552  -0.7134  -0.5798  -0.5504  -0.5475  -0.4754
    -0.3559  -0.1978  -0.0799  -0.0083   1.0609   1.1343   1.2903   1.3777
     1.4591   1.5922   1.6992   1.7282   1.7896   1.8140   1.8819   1.8924
     1.9341   1.9508   2.0505   2.0662   2.0769   2.1804   2.1993   2.2282
     2.2804   2.3380   2.3704   2.3798   2.3840   2.4238   2.4655   2.6070
     2.8341   2.9543   6.4834   6.5459  10.0794  11.0219  12.0705  12.3704
    13.1570  13.2864  13.3290  13.4166  13.4918  13.5986  13.8521  14.1294
    14.4499  14.6000

     occupation numbers 
     1.0000   1.0000   1.0000   1.0000   1.0000   1.0000   1.0000   1.0000
     1.0000   1.0000   1.0000   1.0000   1.0000   1.0000   1.0000   1.0000
     1.0000   1.0000   1.0000   1.0000   1.0000   1.0000   1.0000   1.0000
     1.0000   1.0000   1.0000   1.0000   1.0000   1.0000   1.0000   1.0000
     1.0000   1.0000   1.0000   1.0000   1.0000   1.0000   1.0000   1.0000
     1.0000   1.0000   1.0000   1.0000   1.0000   1.0000   1.0000   1.0000
     1.0000   1.0000   1.0000   1.0000   1.0000   1.0000   1.0000   1.0000
     1.0000   1.0000   1.0000   1.0000   1.0000   1.0000   1.0000   1.0000
     1.0000   1.0000   1.0000   1.0000   1.0000   1.0000   1.0000   1.0000
     1.0000   1.0000   1.0000   1.0000   1.0000   1.0000   1.0000   1.0000
     1.0000   1.0000   0.0000   0.0000   0.0000   0.0000   0.0000   0.0000
     0.0000   0.0000   0.0000   0.0000   0.0000   0.0000   0.0000   0.0000
     0.0000   0.0000

          k = 0.0833 0.4167 0.1866 ( 10830 PWs)   bands (ev):

   -23.0392 -23.0321 -23.0240 -23.0186 -17.6407 -17.6068 -17.4610 -17.4464
   -17.2016 -17.1551 -17.0446 -17.0377 -17.0262 -17.0037 -16.9284 -16.9025
    -6.6457  -6.6109  -6.6105  -6.5739  -6.5697  -6.5622  -6.5541  -6.5447
    -6.5417  -6.5065  -6.4831  -6.4781  -2.8824  -2.8504  -1.9610  -1.9007
    -1.8800  -1.8481  -1.4347  -1.4325  -1.3543  -1.2364  -1.1119  -1.0536
    -1.0135  -0.9911  -0.8590  -0.7421  -0.7079  -0.6270  -0.5566  -0.5007
    -0.4006  -0.3105   0.0202   0.1053   1.1683   1.2658   1.3700   1.4401
     1.4877   1.6260   1.6532   1.7128   1.7883   1.8316   1.8565   1.8680
     1.9258   1.9411   1.9941   2.0154   2.0678   2.2101   2.2192   2.2661
     2.2795   2.3353   2.3604   2.3710   2.3791   2.4399   2.4785   2.6342
     2.8357   2.9627   6.4630   6.5438  10.2460  11.1313  11.5894  12.0480
    13.3322  13.4624  13.5558  13.6070  13.6256  13.6671  13.8666  14.0288
    14.4462  14.6613

     occupation numbers 
     1.0000   1.0000   1.0000   1.0000   1.0000   1.0000   1.0000   1.0000
     1.0000   1.0000   1.0000   1.0000   1.0000   1.0000   1.0000   1.0000
     1.0000   1.0000   1.0000   1.0000   1.0000   1.0000   1.0000   1.0000
     1.0000   1.0000   1.0000   1.0000   1.0000   1.0000   1.0000   1.0000
     1.0000   1.0000   1.0000   1.0000   1.0000   1.0000   1.0000   1.0000
     1.0000   1.0000   1.0000   1.0000   1.0000   1.0000   1.0000   1.0000
     1.0000   1.0000   1.0000   1.0000   1.0000   1.0000   1.0000   1.0000
     1.0000   1.0000   1.0000   1.0000   1.0000   1.0000   1.0000   1.0000
     1.0000   1.0000   1.0000   1.0000   1.0000   1.0000   1.0000   1.0000
     1.0000   1.0000   1.0000   1.0000   1.0000   1.0000   1.0000   1.0000
     1.0000   1.0000   0.0000   0.0000   0.0000   0.0000   0.0000   0.0000
     0.0000   0.0000   0.0000   0.0000   0.0000   0.0000   0.0000   0.0000
     0.0000   0.0000

          k = 0.0833 0.4167 0.3109 ( 10832 PWs)   bands (ev):

   -23.0344 -23.0288 -23.0278 -23.0228 -17.5934 -17.5628 -17.5258 -17.5015
   -17.1816 -17.1447 -17.0443 -17.0376 -17.0292 -17.0038 -16.9284 -16.9023
    -6.6165  -6.5988  -6.5936  -6.5843  -6.5812  -6.5696  -6.5648  -6.5588
    -6.5245  -6.5008  -6.4989  -6.4902  -2.8294  -2.7902  -1.8851  -1.8813
    -1.8146  -1.6996  -1.4011  -1.3915  -1.3654  -1.3361  -1.2996  -1.2347
    -1.1007  -1.0905  -0.8586  -0.8299  -0.7099  -0.6728  -0.5530  -0.5326
    -0.3890  -0.3501   0.0700   0.1546   1.2468   1.4346   1.4831   1.4993
     1.5623   1.5940   1.6789   1.6810   1.7556   1.8113   1.8309   1.8511
     1.8869   1.9105   1.9395   1.9739   2.0776   2.2056   2.2148   2.2575
     2.2859   2.3049   2.3648   2.3719   2.4069   2.4610   2.5320   2.6839
     2.8203   2.9708   6.4416   6.5419  10.5719  11.0451  11.3467  11.6754
    13.6118  13.6302  13.6700  13.7002  13.7646  13.8440  13.8660  13.9112
    14.5147  14.7399

     occupation numbers 
     1.0000   1.0000   1.0000   1.0000   1.0000   1.0000   1.0000   1.0000
     1.0000   1.0000   1.0000   1.0000   1.0000   1.0000   1.0000   1.0000
     1.0000   1.0000   1.0000   1.0000   1.0000   1.0000   1.0000   1.0000
     1.0000   1.0000   1.0000   1.0000   1.0000   1.0000   1.0000   1.0000
     1.0000   1.0000   1.0000   1.0000   1.0000   1.0000   1.0000   1.0000
     1.0000   1.0000   1.0000   1.0000   1.0000   1.0000   1.0000   1.0000
     1.0000   1.0000   1.0000   1.0000   1.0000   1.0000   1.0000   1.0000
     1.0000   1.0000   1.0000   1.0000   1.0000   1.0000   1.0000   1.0000
     1.0000   1.0000   1.0000   1.0000   1.0000   1.0000   1.0000   1.0000
     1.0000   1.0000   1.0000   1.0000   1.0000   1.0000   1.0000   1.0000
     1.0000   1.0000   0.0000   0.0000   0.0000   0.0000   0.0000   0.0000
     0.0000   0.0000   0.0000   0.0000   0.0000   0.0000   0.0000   0.0000
     0.0000   0.0000

          k = 0.2500 0.2500 0.0622 ( 10858 PWs)   bands (ev):

   -23.0457 -23.0309 -23.0238 -23.0138 -17.6845 -17.6135 -17.4136 -17.4076
   -17.2535 -17.1304 -17.0557 -17.0376 -17.0291 -16.9699 -16.9642 -16.8939
    -6.6828  -6.6420  -6.5995  -6.5780  -6.5604  -6.5550  -6.5522  -6.5437
    -6.5343  -6.4889  -6.4852  -6.4568  -2.9768  -2.9088  -2.1274  -1.9388
    -1.9127  -1.8923  -1.4735  -1.4626  -1.4157  -1.1662  -1.0104  -0.9520
    -0.9458  -0.9295  -0.9257  -0.6103  -0.5864  -0.5598  -0.4837  -0.4325
    -0.1935  -0.0556   0.1404   0.4051   0.5056   0.9411   1.2535   1.2847
     1.4179   1.5183   1.7748   1.7955   1.8325   1.8617   1.8640   1.8774
     1.8977   1.9844   1.9975   2.0353   2.0823   2.1155   2.1243   2.2258
     2.2816   2.3400   2.3708   2.3785   2.3982   2.4317   2.4902   2.5498
     2.8575   3.0756   6.4688   6.5996   9.7269  11.8933  11.9707  12.6372
    12.8681  13.0476  13.1930  13.2094  13.2452  13.4578  13.9749  14.2330
    14.4191  14.7125

     occupation numbers 
     1.0000   1.0000   1.0000   1.0000   1.0000   1.0000   1.0000   1.0000
     1.0000   1.0000   1.0000   1.0000   1.0000   1.0000   1.0000   1.0000
     1.0000   1.0000   1.0000   1.0000   1.0000   1.0000   1.0000   1.0000
     1.0000   1.0000   1.0000   1.0000   1.0000   1.0000   1.0000   1.0000
     1.0000   1.0000   1.0000   1.0000   1.0000   1.0000   1.0000   1.0000
     1.0000   1.0000   1.0000   1.0000   1.0000   1.0000   1.0000   1.0000
     1.0000   1.0000   1.0000   1.0000   1.0000   1.0000   1.0000   1.0000
     1.0000   1.0000   1.0000   1.0000   1.0000   1.0000   1.0000   1.0000
     1.0000   1.0000   1.0000   1.0000   1.0000   1.0000   1.0000   1.0000
     1.0000   1.0000   1.0000   1.0000   1.0000   1.0000   1.0000   1.0000
     1.0000   1.0000   0.0000   0.0000   0.0000   0.0000   0.0000   0.0000
     0.0000   0.0000   0.0000   0.0000   0.0000   0.0000   0.0000   0.0000
     0.0000   0.0000

          k = 0.2500 0.2500 0.1866 ( 10844 PWs)   bands (ev):

   -23.0428 -23.0285 -23.0268 -23.0159 -17.6577 -17.5898 -17.4695 -17.4401
   -17.2208 -17.1237 -17.0557 -17.0374 -17.0329 -16.9689 -16.9642 -16.8935
    -6.6604  -6.6314  -6.5931  -6.5703  -6.5680  -6.5655  -6.5509  -6.5439
    -6.5274  -6.4975  -6.4917  -6.4805  -2.9336  -2.8495  -2.0489  -1.8998
    -1.8854  -1.8633  -1.4484  -1.4318  -1.3984  -1.1934  -1.1659  -1.0255
    -1.0076  -1.0023  -0.9235  -0.7639  -0.6102  -0.6074  -0.5301  -0.5154
    -0.2612   0.0135   0.2133   0.4426   0.4808   1.1528   1.3431   1.3864
     1.4428   1.5890   1.7295   1.7554   1.8377   1.8602   1.8656   1.8777
     1.8970   1.9062   1.9737   2.0006   2.0647   2.1018   2.1370   2.2738
     2.3133   2.3261   2.3321   2.3679   2.3942   2.4847   2.5193   2.5304
     2.8488   3.1069   6.4376   6.6006   9.9198  11.4345  11.9633  12.5023
    12.9397  13.2106  13.2203  13.2948  13.4870  13.5946  14.0942  14.1060
    14.2864  14.7300

     occupation numbers 
     1.0000   1.0000   1.0000   1.0000   1.0000   1.0000   1.0000   1.0000
     1.0000   1.0000   1.0000   1.0000   1.0000   1.0000   1.0000   1.0000
     1.0000   1.0000   1.0000   1.0000   1.0000   1.0000   1.0000   1.0000
     1.0000   1.0000   1.0000   1.0000   1.0000   1.0000   1.0000   1.0000
     1.0000   1.0000   1.0000   1.0000   1.0000   1.0000   1.0000   1.0000
     1.0000   1.0000   1.0000   1.0000   1.0000   1.0000   1.0000   1.0000
     1.0000   1.0000   1.0000   1.0000   1.0000   1.0000   1.0000   1.0000
     1.0000   1.0000   1.0000   1.0000   1.0000   1.0000   1.0000   1.0000
     1.0000   1.0000   1.0000   1.0000   1.0000   1.0000   1.0000   1.0000
     1.0000   1.0000   1.0000   1.0000   1.0000   1.0000   1.0000   1.0000
     1.0000   1.0000   0.0000   0.0000   0.0000   0.0000   0.0000   0.0000
     0.0000   0.0000   0.0000   0.0000   0.0000   0.0000   0.0000   0.0000
     0.0000   0.0000

          k = 0.2500 0.2500 0.3109 ( 10829 PWs)   bands (ev):

   -23.0377 -23.0319 -23.0244 -23.0198 -17.6091 -17.5478 -17.5386 -17.4900
   -17.1963 -17.1178 -17.0557 -17.0381 -17.0363 -16.9679 -16.9643 -16.8931
    -6.6236  -6.6131  -6.5933  -6.5881  -6.5761  -6.5632  -6.5482  -6.5293
    -6.5172  -6.5156  -6.5124  -6.5023  -2.8908  -2.7877  -1.9066  -1.8869
    -1.8721  -1.6975  -1.4676  -1.4399  -1.3653  -1.3617  -1.2885  -1.1655
    -1.0993  -1.0769  -0.9226  -0.8575  -0.6227  -0.6101  -0.5717  -0.5468
    -0.3040   0.0648   0.2996   0.4370   0.4701   1.3480   1.4419   1.4758
     1.5457   1.6305   1.6850   1.7151   1.7501   1.8190   1.8543   1.8828
     1.8946   1.9114   1.9205   2.0259   2.0473   2.0852   2.1432   2.2607
     2.2840   2.2951   2.3407   2.3714   2.4153   2.4656   2.5054   2.6616
     2.8134   3.1410   6.4034   6.6032  10.2939  10.8275  12.0891  12.3109
    13.0451  13.1431  13.4400  13.5499  13.5678  13.8083  13.8921  14.0534
    14.3833  14.7198

     occupation numbers 
     1.0000   1.0000   1.0000   1.0000   1.0000   1.0000   1.0000   1.0000
     1.0000   1.0000   1.0000   1.0000   1.0000   1.0000   1.0000   1.0000
     1.0000   1.0000   1.0000   1.0000   1.0000   1.0000   1.0000   1.0000
     1.0000   1.0000   1.0000   1.0000   1.0000   1.0000   1.0000   1.0000
     1.0000   1.0000   1.0000   1.0000   1.0000   1.0000   1.0000   1.0000
     1.0000   1.0000   1.0000   1.0000   1.0000   1.0000   1.0000   1.0000
     1.0000   1.0000   1.0000   1.0000   1.0000   1.0000   1.0000   1.0000
     1.0000   1.0000   1.0000   1.0000   1.0000   1.0000   1.0000   1.0000
     1.0000   1.0000   1.0000   1.0000   1.0000   1.0000   1.0000   1.0000
     1.0000   1.0000   1.0000   1.0000   1.0000   1.0000   1.0000   1.0000
     1.0000   1.0000   0.0000   0.0000   0.0000   0.0000   0.0000   0.0000
     0.0000   0.0000   0.0000   0.0000   0.0000   0.0000   0.0000   0.0000
     0.0000   0.0000

          k = 0.2500 0.4167 0.0622 ( 10843 PWs)   bands (ev):

   -23.0403 -23.0349 -23.0207 -23.0171 -17.6655 -17.6396 -17.4133 -17.4112
   -17.2121 -17.1661 -17.0508 -17.0428 -17.0128 -16.9906 -16.9430 -16.9165
    -6.6524  -6.6221  -6.6142  -6.5814  -6.5524  -6.5461  -6.5345  -6.5270
    -6.5207  -6.4866  -6.4791  -6.4673  -2.9593  -2.9277  -2.0944  -2.0152
    -1.9276  -1.9165  -1.4883  -1.4812  -1.3318  -1.2413  -0.9843  -0.9471
    -0.9433  -0.8921  -0.8227  -0.7063  -0.5674  -0.5121  -0.5051  -0.2956
    -0.1629  -0.1366  -0.0012   0.2286   0.8547   0.9974   1.1874   1.2536
     1.4826   1.6244   1.7119   1.7440   1.7784   1.8043   1.8489   1.8518
     1.8703   1.8854   2.0312   2.0445   2.0670   2.1246   2.1623   2.1815
     2.2530   2.3015   2.3505   2.3636   2.3749   2.4273   2.4500   2.5188
     2.8753   2.9271   6.4958   6.5440  10.4425  11.2799  12.2780  12.5460
    12.8367  13.0056  13.4083  13.5601  13.6877  13.7011  13.7970  14.2433
    14.5209  14.5293

     occupation numbers 
     1.0000   1.0000   1.0000   1.0000   1.0000   1.0000   1.0000   1.0000
     1.0000   1.0000   1.0000   1.0000   1.0000   1.0000   1.0000   1.0000
     1.0000   1.0000   1.0000   1.0000   1.0000   1.0000   1.0000   1.0000
     1.0000   1.0000   1.0000   1.0000   1.0000   1.0000   1.0000   1.0000
     1.0000   1.0000   1.0000   1.0000   1.0000   1.0000   1.0000   1.0000
     1.0000   1.0000   1.0000   1.0000   1.0000   1.0000   1.0000   1.0000
     1.0000   1.0000   1.0000   1.0000   1.0000   1.0000   1.0000   1.0000
     1.0000   1.0000   1.0000   1.0000   1.0000   1.0000   1.0000   1.0000
     1.0000   1.0000   1.0000   1.0000   1.0000   1.0000   1.0000   1.0000
     1.0000   1.0000   1.0000   1.0000   1.0000   1.0000   1.0000   1.0000
     1.0000   1.0000   0.0000   0.0000   0.0000   0.0000   0.0000   0.0000
     0.0000   0.0000   0.0000   0.0000   0.0000   0.0000   0.0000   0.0000
     0.0000   0.0000

          k = 0.2500 0.4167 0.1866 ( 10828 PWs)   bands (ev):

   -23.0376 -23.0324 -23.0232 -23.0193 -17.6391 -17.6143 -17.4604 -17.4498
   -17.1901 -17.1537 -17.0507 -17.0426 -17.0147 -16.9905 -16.9427 -16.9161
    -6.6340  -6.6101  -6.6046  -6.5716  -6.5598  -6.5527  -6.5435  -6.5294
    -6.5179  -6.4905  -6.4893  -6.4827  -2.9127  -2.8736  -2.0167  -1.9449
    -1.9090  -1.9014  -1.4517  -1.4504  -1.3288  -1.2408  -1.1670  -1.0825
    -1.0145  -1.0071  -0.8220  -0.7070  -0.6414  -0.5607  -0.4812  -0.4198
    -0.2970  -0.0960   0.1119   0.3076   0.8912   1.1435   1.2791   1.3311
     1.4967   1.6393   1.6591   1.7356   1.7669   1.8170   1.8460   1.8538
     1.8626   1.8848   1.9565   1.9838   2.0671   2.1606   2.1981   2.2036
     2.2962   2.3083   2.3355   2.3728   2.3871   2.4081   2.4608   2.4804
     2.8895   2.9696   6.4751   6.5329  10.5992  11.3914  11.8538  12.2800
    12.9547  13.1606  13.5059  13.5828  13.7017  13.8269  13.9573  14.1876
    14.5308  14.5710

     occupation numbers 
     1.0000   1.0000   1.0000   1.0000   1.0000   1.0000   1.0000   1.0000
     1.0000   1.0000   1.0000   1.0000   1.0000   1.0000   1.0000   1.0000
     1.0000   1.0000   1.0000   1.0000   1.0000   1.0000   1.0000   1.0000
     1.0000   1.0000   1.0000   1.0000   1.0000   1.0000   1.0000   1.0000
     1.0000   1.0000   1.0000   1.0000   1.0000   1.0000   1.0000   1.0000
     1.0000   1.0000   1.0000   1.0000   1.0000   1.0000   1.0000   1.0000
     1.0000   1.0000   1.0000   1.0000   1.0000   1.0000   1.0000   1.0000
     1.0000   1.0000   1.0000   1.0000   1.0000   1.0000   1.0000   1.0000
     1.0000   1.0000   1.0000   1.0000   1.0000   1.0000   1.0000   1.0000
     1.0000   1.0000   1.0000   1.0000   1.0000   1.0000   1.0000   1.0000
     1.0000   1.0000   0.0000   0.0000   0.0000   0.0000   0.0000   0.0000
     0.0000   0.0000   0.0000   0.0000   0.0000   0.0000   0.0000   0.0000
     0.0000   0.0000

          k = 0.2500 0.4167 0.3109 ( 10817 PWs)   bands (ev):

   -23.0330 -23.0281 -23.0277 -23.0233 -17.5915 -17.5692 -17.5242 -17.5065
   -17.1725 -17.1432 -17.0506 -17.0424 -17.0167 -16.9904 -16.9424 -16.9158
    -6.6036  -6.5906  -6.5874  -6.5759  -6.5683  -6.5631  -6.5539  -6.5367
    -6.5125  -6.5017  -6.4983  -6.4960  -2.8661  -2.8182  -1.8987  -1.8970
    -1.8558  -1.7816  -1.4465  -1.4151  -1.3908  -1.3649  -1.3208  -1.2396
    -1.1023  -1.0888  -0.8211  -0.7072  -0.6878  -0.6048  -0.4932  -0.4384
    -0.3722  -0.0638   0.1693   0.3528   0.9210   1.3068   1.4015   1.4113
     1.5160   1.5557   1.6865   1.6941   1.7566   1.8105   1.8225   1.8593
     1.8717   1.8756   1.8998   1.9441   2.0756   2.1924   2.2053   2.2282
     2.2905   2.3006   2.3174   2.3616   2.3983   2.4075   2.4362   2.5281
     2.9036   3.0158   6.4524   6.5226  10.9042  11.3512  11.6062  11.9361
    13.1550  13.3761  13.4132  13.6311  13.7586  14.0357  14.0631  14.0976
    14.4554  14.5279

     occupation numbers 
     1.0000   1.0000   1.0000   1.0000   1.0000   1.0000   1.0000   1.0000
     1.0000   1.0000   1.0000   1.0000   1.0000   1.0000   1.0000   1.0000
     1.0000   1.0000   1.0000   1.0000   1.0000   1.0000   1.0000   1.0000
     1.0000   1.0000   1.0000   1.0000   1.0000   1.0000   1.0000   1.0000
     1.0000   1.0000   1.0000   1.0000   1.0000   1.0000   1.0000   1.0000
     1.0000   1.0000   1.0000   1.0000   1.0000   1.0000   1.0000   1.0000
     1.0000   1.0000   1.0000   1.0000   1.0000   1.0000   1.0000   1.0000
     1.0000   1.0000   1.0000   1.0000   1.0000   1.0000   1.0000   1.0000
     1.0000   1.0000   1.0000   1.0000   1.0000   1.0000   1.0000   1.0000
     1.0000   1.0000   1.0000   1.0000   1.0000   1.0000   1.0000   1.0000
     1.0000   1.0000   0.0000   0.0000   0.0000   0.0000   0.0000   0.0000
     0.0000   0.0000   0.0000   0.0000   0.0000   0.0000   0.0000   0.0000
     0.0000   0.0000

          k = 0.4167 0.4167 0.0622 ( 10810 PWs)   bands (ev):

   -23.0379 -23.0359 -23.0198 -23.0185 -17.6607 -17.6513 -17.4146 -17.4139
   -17.1895 -17.1717 -17.0547 -17.0509 -16.9929 -16.9716 -16.9628 -16.9399
    -6.6383  -6.6272  -6.6050  -6.5931  -6.5400  -6.5378  -6.5248  -6.5217
    -6.4808  -6.4769  -6.4725  -6.4680  -2.9733  -2.9576  -2.1290  -2.1012
    -1.9541  -1.9478  -1.4999  -1.4960  -1.2931  -1.2601  -1.0194  -0.9797
    -0.9417  -0.9385  -0.7692  -0.7251  -0.5137  -0.4963  -0.2198  -0.2166
    -0.1385   0.1666   0.1747   0.4020   0.5951   0.8141   1.1047   1.1143
     1.5238   1.6663   1.6795   1.7177   1.7775   1.7878   1.7951   1.8140
     1.8186   1.8309   1.9194   1.9953   2.0546   2.0590   2.0723   2.1129
     2.2024   2.2314   2.3737   2.3764   2.3879   2.4078   2.5127   2.5394
     2.8800   2.8982   6.5171   6.5362  11.0297  11.4868  12.3557  12.5409
    12.5996  12.6797  13.4950  13.6036  13.8946  13.9345  14.3137  14.3216
    14.3393  14.6624

     occupation numbers 
     1.0000   1.0000   1.0000   1.0000   1.0000   1.0000   1.0000   1.0000
     1.0000   1.0000   1.0000   1.0000   1.0000   1.0000   1.0000   1.0000
     1.0000   1.0000   1.0000   1.0000   1.0000   1.0000   1.0000   1.0000
     1.0000   1.0000   1.0000   1.0000   1.0000   1.0000   1.0000   1.0000
     1.0000   1.0000   1.0000   1.0000   1.0000   1.0000   1.0000   1.0000
     1.0000   1.0000   1.0000   1.0000   1.0000   1.0000   1.0000   1.0000
     1.0000   1.0000   1.0000   1.0000   1.0000   1.0000   1.0000   1.0000
     1.0000   1.0000   1.0000   1.0000   1.0000   1.0000   1.0000   1.0000
     1.0000   1.0000   1.0000   1.0000   1.0000   1.0000   1.0000   1.0000
     1.0000   1.0000   1.0000   1.0000   1.0000   1.0000   1.0000   1.0000
     1.0000   1.0000   0.0000   0.0000   0.0000   0.0000   0.0000   0.0000
     0.0000   0.0000   0.0000   0.0000   0.0000   0.0000   0.0000   0.0000
     0.0000   0.0000

          k = 0.4167 0.4167 0.1866 ( 10835 PWs)   bands (ev):

   -23.0354 -23.0334 -23.0220 -23.0205 -17.6343 -17.6253 -17.4584 -17.4546
   -17.1721 -17.1578 -17.0546 -17.0508 -16.9936 -16.9710 -16.9630 -16.9396
    -6.6181  -6.6107  -6.5964  -6.5829  -6.5488  -6.5467  -6.5242  -6.5146
    -6.4962  -6.4902  -6.4855  -6.4754  -2.9290  -2.9100  -2.0460  -2.0208
    -1.9331  -1.9272  -1.4673  -1.4667  -1.2920  -1.2595  -1.1985  -1.1631
    -1.0136  -1.0100  -0.7687  -0.7254  -0.5680  -0.5480  -0.3675  -0.3389
    -0.0917   0.2519   0.3009   0.4732   0.5616   0.8921   1.2002   1.2048
     1.5333   1.6285   1.6534   1.6696   1.7718   1.8040   1.8203   1.8204
     1.8411   1.8459   1.9378   1.9455   2.0491   2.0632   2.0743   2.1902
     2.2094   2.2383   2.3578   2.3646   2.3819   2.4068   2.4686   2.4980
     2.9317   2.9606   6.4953   6.5166  11.1679  11.5997  12.2394  12.4573
    12.5046  12.7460  13.5504  13.6296  13.6754  13.7445  14.3978  14.4185
    14.4669  14.7194

     occupation numbers 
     1.0000   1.0000   1.0000   1.0000   1.0000   1.0000   1.0000   1.0000
     1.0000   1.0000   1.0000   1.0000   1.0000   1.0000   1.0000   1.0000
     1.0000   1.0000   1.0000   1.0000   1.0000   1.0000   1.0000   1.0000
     1.0000   1.0000   1.0000   1.0000   1.0000   1.0000   1.0000   1.0000
     1.0000   1.0000   1.0000   1.0000   1.0000   1.0000   1.0000   1.0000
     1.0000   1.0000   1.0000   1.0000   1.0000   1.0000   1.0000   1.0000
     1.0000   1.0000   1.0000   1.0000   1.0000   1.0000   1.0000   1.0000
     1.0000   1.0000   1.0000   1.0000   1.0000   1.0000   1.0000   1.0000
     1.0000   1.0000   1.0000   1.0000   1.0000   1.0000   1.0000   1.0000
     1.0000   1.0000   1.0000   1.0000   1.0000   1.0000   1.0000   1.0000
     1.0000   1.0000   0.0000   0.0000   0.0000   0.0000   0.0000   0.0000
     0.0000   0.0000   0.0000   0.0000   0.0000   0.0000   0.0000   0.0000
     0.0000   0.0000

          k = 0.4167 0.4167 0.3109 ( 10824 PWs)   bands (ev):

   -23.0310 -23.0292 -23.0260 -23.0244 -17.5868 -17.5787 -17.5202 -17.5138
   -17.1578 -17.1462 -17.0545 -17.0506 -16.9942 -16.9704 -16.9631 -16.9392
    -6.5852  -6.5828  -6.5815  -6.5642  -6.5629  -6.5611  -6.5435  -6.5284
    -6.5024  -6.5000  -6.4932  -6.4879  -2.8851  -2.8624  -1.9118  -1.9105
    -1.8783  -1.8557  -1.4750  -1.4428  -1.4275  -1.4204  -1.2898  -1.2588
    -1.0981  -1.0904  -0.7684  -0.7257  -0.6140  -0.5943  -0.4383  -0.4038
    -0.0589   0.3580   0.3701   0.5011   0.5170   0.9585   1.3304   1.3411
     1.4872   1.5108   1.6460   1.6605   1.7920   1.8165   1.8215   1.8377
     1.8566   1.8599   1.8969   1.9803   2.0339   2.0586   2.0871   2.2163
     2.2424   2.2461   2.3456   2.3596   2.3744   2.4072   2.4166   2.4475
     2.9871   3.0260   6.4719   6.4969  11.4328  11.8113  11.8289  12.1481
    12.7809  13.0194  13.1456  13.3572  13.8884  14.0098  14.2162  14.3278
    14.5427  14.6630

     occupation numbers 
     1.0000   1.0000   1.0000   1.0000   1.0000   1.0000   1.0000   1.0000
     1.0000   1.0000   1.0000   1.0000   1.0000   1.0000   1.0000   1.0000
     1.0000   1.0000   1.0000   1.0000   1.0000   1.0000   1.0000   1.0000
     1.0000   1.0000   1.0000   1.0000   1.0000   1.0000   1.0000   1.0000
     1.0000   1.0000   1.0000   1.0000   1.0000   1.0000   1.0000   1.0000
     1.0000   1.0000   1.0000   1.0000   1.0000   1.0000   1.0000   1.0000
     1.0000   1.0000   1.0000   1.0000   1.0000   1.0000   1.0000   1.0000
     1.0000   1.0000   1.0000   1.0000   1.0000   1.0000   1.0000   1.0000
     1.0000   1.0000   1.0000   1.0000   1.0000   1.0000   1.0000   1.0000
     1.0000   1.0000   1.0000   1.0000   1.0000   1.0000   1.0000   1.0000
     1.0000   1.0000   0.0000   0.0000   0.0000   0.0000   0.0000   0.0000
     0.0000   0.0000   0.0000   0.0000   0.0000   0.0000   0.0000   0.0000
     0.0000   0.0000

          k =-0.0833 0.0833-0.0622 ( 10859 PWs)   bands (ev):

   -23.0535 -23.0285 -23.0265 -23.0094 -17.7086 -17.5755 -17.4151 -17.4015
   -17.3045 -17.0789 -17.0582 -17.0467 -17.0437 -16.9656 -16.9644 -16.8689
    -6.7268  -6.6804  -6.6719  -6.5839  -6.5823  -6.5668  -6.5486  -6.5472
    -6.5109  -6.5020  -6.5018  -6.4426  -2.9991  -2.9223  -2.1675  -2.0100
    -1.8769  -1.8744  -1.5391  -1.4275  -1.4266  -1.0574  -1.0557  -1.0460
    -0.9535  -0.9503  -0.9071  -0.5378  -0.4803  -0.4700  -0.4640  -0.2578
    -0.1270   0.0953   0.1188   0.2980   0.3815   0.7721   0.9765   1.3521
     1.3965   1.4245   1.8258   1.8560   1.8749   1.8804   1.8995   1.9006
     1.9988   2.0306   2.0320   2.0882   2.1000   2.1138   2.1196   2.1924
     2.2035   2.3074   2.3112   2.5293   2.5470   2.5596   2.5851   2.6247
     2.6697   3.4590   6.4574   6.7183   8.8610  11.5788  12.4693  12.6330
    12.6937  12.7261  12.7610  12.8843  12.9750  13.6498  13.8553  14.1836
    14.2309  14.3725

     occupation numbers 
     1.0000   1.0000   1.0000   1.0000   1.0000   1.0000   1.0000   1.0000
     1.0000   1.0000   1.0000   1.0000   1.0000   1.0000   1.0000   1.0000
     1.0000   1.0000   1.0000   1.0000   1.0000   1.0000   1.0000   1.0000
     1.0000   1.0000   1.0000   1.0000   1.0000   1.0000   1.0000   1.0000
     1.0000   1.0000   1.0000   1.0000   1.0000   1.0000   1.0000   1.0000
     1.0000   1.0000   1.0000   1.0000   1.0000   1.0000   1.0000   1.0000
     1.0000   1.0000   1.0000   1.0000   1.0000   1.0000   1.0000   1.0000
     1.0000   1.0000   1.0000   1.0000   1.0000   1.0000   1.0000   1.0000
     1.0000   1.0000   1.0000   1.0000   1.0000   1.0000   1.0000   1.0000
     1.0000   1.0000   1.0000   1.0000   1.0000   1.0000   1.0000   1.0000
     1.0000   1.0000   0.0000   0.0000   0.0000   0.0000   0.0000   0.0000
     0.0000   0.0000   0.0000   0.0000   0.0000   0.0000   0.0000   0.0000
     0.0000   0.0000

          k =-0.0833 0.0833-0.1866 ( 10843 PWs)   bands (ev):

   -23.0501 -23.0318 -23.0241 -23.0116 -17.6817 -17.5543 -17.4845 -17.4266
   -17.2560 -17.0769 -17.0579 -17.0523 -17.0438 -16.9657 -16.9648 -16.8680
    -6.6945  -6.6671  -6.6555  -6.5965  -6.5956  -6.5601  -6.5454  -6.5409
    -6.5140  -6.5088  -6.5076  -6.4811  -2.9580  -2.8671  -2.0941  -1.9158
    -1.8688  -1.8652  -1.5316  -1.3977  -1.3968  -1.2503  -1.0595  -1.0573
    -1.0304  -1.0007  -0.9831  -0.5763  -0.5389  -0.5120  -0.4639  -0.4536
    -0.2593   0.1549   0.1882   0.3182   0.3667   1.0049   1.1006   1.4444
     1.4815   1.5151   1.8245   1.8456   1.8646   1.8711   1.9046   1.9153
     1.9716   1.9934   2.0127   2.0347   2.0965   2.1188   2.1208   2.1806
     2.2047   2.3050   2.3141   2.4672   2.4989   2.5531   2.6255   2.6312
     2.6939   3.4680   6.4040   6.7372   9.1078  10.9379  12.4878  12.6440
    12.8542  12.9016  12.9576  13.0677  13.1166  13.6082  13.7221  13.9178
    14.2393  14.4512

     occupation numbers 
     1.0000   1.0000   1.0000   1.0000   1.0000   1.0000   1.0000   1.0000
     1.0000   1.0000   1.0000   1.0000   1.0000   1.0000   1.0000   1.0000
     1.0000   1.0000   1.0000   1.0000   1.0000   1.0000   1.0000   1.0000
     1.0000   1.0000   1.0000   1.0000   1.0000   1.0000   1.0000   1.0000
     1.0000   1.0000   1.0000   1.0000   1.0000   1.0000   1.0000   1.0000
     1.0000   1.0000   1.0000   1.0000   1.0000   1.0000   1.0000   1.0000
     1.0000   1.0000   1.0000   1.0000   1.0000   1.0000   1.0000   1.0000
     1.0000   1.0000   1.0000   1.0000   1.0000   1.0000   1.0000   1.0000
     1.0000   1.0000   1.0000   1.0000   1.0000   1.0000   1.0000   1.0000
     1.0000   1.0000   1.0000   1.0000   1.0000   1.0000   1.0000   1.0000
     1.0000   1.0000   0.0000   0.0000   0.0000   0.0000   0.0000   0.0000
     0.0000   0.0000   0.0000   0.0000   0.0000   0.0000   0.0000   0.0000
     0.0000   0.0000

          k =-0.0833 0.0833-0.3109 ( 10871 PWs)   bands (ev):

   -23.0444 -23.0377 -23.0200 -23.0155 -17.6326 -17.5589 -17.5178 -17.4669
   -17.2236 -17.0752 -17.0597 -17.0576 -17.0431 -16.9658 -16.9652 -16.8673
    -6.6506  -6.6445  -6.6191  -6.6187  -6.6144  -6.5494  -6.5461  -6.5429
    -6.5301  -6.5185  -6.5178  -6.5175  -2.9171  -2.8121  -1.9573  -1.8615
    -1.8607  -1.6944  -1.5240  -1.5093  -1.3622  -1.3606  -1.3170  -1.0714
    -1.0635  -1.0573  -1.0506  -0.6927  -0.6089  -0.5496  -0.4647  -0.4638
    -0.2603   0.2213   0.2371   0.3176   0.3400   1.0437   1.3163   1.5807
     1.6031   1.6392   1.7619   1.7799   1.8716   1.8806   1.8924   1.9023
     1.9345   1.9647   1.9872   1.9881   2.0923   2.1138   2.1247   2.1699
     2.2229   2.3162   2.3339   2.3910   2.4261   2.5538   2.6256   2.6621
     2.7353   3.4767   6.3481   6.7551   9.5772  10.2203  12.5152  12.6147
    13.0881  13.1359  13.1795  13.2453  13.3219  13.3776  13.4831  13.5830
    14.5256  14.6265

     occupation numbers 
     1.0000   1.0000   1.0000   1.0000   1.0000   1.0000   1.0000   1.0000
     1.0000   1.0000   1.0000   1.0000   1.0000   1.0000   1.0000   1.0000
     1.0000   1.0000   1.0000   1.0000   1.0000   1.0000   1.0000   1.0000
     1.0000   1.0000   1.0000   1.0000   1.0000   1.0000   1.0000   1.0000
     1.0000   1.0000   1.0000   1.0000   1.0000   1.0000   1.0000   1.0000
     1.0000   1.0000   1.0000   1.0000   1.0000   1.0000   1.0000   1.0000
     1.0000   1.0000   1.0000   1.0000   1.0000   1.0000   1.0000   1.0000
     1.0000   1.0000   1.0000   1.0000   1.0000   1.0000   1.0000   1.0000
     1.0000   1.0000   1.0000   1.0000   1.0000   1.0000   1.0000   1.0000
     1.0000   1.0000   1.0000   1.0000   1.0000   1.0000   1.0000   1.0000
     1.0000   1.0000   0.0000   0.0000   0.0000   0.0000   0.0000   0.0000
     0.0000   0.0000   0.0000   0.0000   0.0000   0.0000   0.0000   0.0000
     0.0000   0.0000

          k =-0.0833 0.2500-0.0622 ( 10833 PWs)   bands (ev):

   -23.0491 -23.0291 -23.0257 -23.0119 -17.6942 -17.5970 -17.4135 -17.4047
   -17.2772 -17.1142 -17.0536 -17.0391 -17.0357 -16.9813 -16.9513 -16.8810
    -6.7023  -6.6576  -6.6224  -6.5899  -6.5737  -6.5625  -6.5520  -6.5366
    -6.5336  -6.4977  -6.4938  -6.4506  -2.9723  -2.9100  -2.1210  -1.9425
    -1.8889  -1.8803  -1.4722  -1.4512  -1.4437  -1.1250  -1.0013  -0.9876
    -0.9541  -0.9508  -0.8492  -0.7385  -0.5605  -0.5260  -0.4929  -0.2896
    -0.2120  -0.1221   0.0050   0.1959   0.7231   0.9840   1.1678   1.3411
     1.4162   1.4580   1.7945   1.8203   1.8446   1.8679   1.8909   1.9076
     1.9426   1.9560   2.0356   2.0506   2.0911   2.1240   2.1500   2.2161
     2.2637   2.3166   2.3304   2.4485   2.4601   2.5152   2.5375   2.6135
     2.7785   3.2312   6.4606   6.6407   9.3073  11.7673  11.9451  12.5656
    12.9003  12.9390  13.0730  13.1397  13.1835  13.3864  14.0557  14.1232
    14.3328  14.4905

     occupation numbers 
     1.0000   1.0000   1.0000   1.0000   1.0000   1.0000   1.0000   1.0000
     1.0000   1.0000   1.0000   1.0000   1.0000   1.0000   1.0000   1.0000
     1.0000   1.0000   1.0000   1.0000   1.0000   1.0000   1.0000   1.0000
     1.0000   1.0000   1.0000   1.0000   1.0000   1.0000   1.0000   1.0000
     1.0000   1.0000   1.0000   1.0000   1.0000   1.0000   1.0000   1.0000
     1.0000   1.0000   1.0000   1.0000   1.0000   1.0000   1.0000   1.0000
     1.0000   1.0000   1.0000   1.0000   1.0000   1.0000   1.0000   1.0000
     1.0000   1.0000   1.0000   1.0000   1.0000   1.0000   1.0000   1.0000
     1.0000   1.0000   1.0000   1.0000   1.0000   1.0000   1.0000   1.0000
     1.0000   1.0000   1.0000   1.0000   1.0000   1.0000   1.0000   1.0000
     1.0000   1.0000   0.0000   0.0000   0.0000   0.0000   0.0000   0.0000
     0.0000   0.0000   0.0000   0.0000   0.0000   0.0000   0.0000   0.0000
     0.0000   0.0000

          k =-0.0833 0.2500-0.1866 ( 10846 PWs)   bands (ev):

   -23.0460 -23.0289 -23.0267 -23.0141 -17.6673 -17.5743 -17.4752 -17.4340
   -17.2375 -17.1097 -17.0534 -17.0433 -17.0362 -16.9807 -16.9515 -16.8806
    -6.6782  -6.6465  -6.6064  -6.5915  -6.5778  -6.5746  -6.5506  -6.5387
    -6.5336  -6.4998  -6.4973  -6.4795  -2.9276  -2.8517  -2.0491  -1.8901
    -1.8740  -1.8465  -1.4730  -1.4140  -1.4066  -1.1981  -1.1249  -1.0372
    -1.0126  -0.9797  -0.9130  -0.7940  -0.6213  -0.5604  -0.5510  -0.4980
    -0.2505  -0.0821   0.0799   0.2579   0.7507   1.1726   1.2666   1.4200
     1.4560   1.5542   1.7617   1.7878   1.8404   1.8660   1.8763   1.8959
     1.9268   1.9476   1.9975   2.0345   2.0529   2.1279   2.1738   2.2560
     2.2794   2.3184   2.3397   2.3920   2.4353   2.4901   2.5387   2.6609
     2.7851   3.2436   6.4204   6.6521   9.5229  11.1795  11.9958  12.4293
    13.0580  13.1718  13.2250  13.2964  13.3430  13.4302  13.9017  14.0169
    14.3218  14.5469

     occupation numbers 
     1.0000   1.0000   1.0000   1.0000   1.0000   1.0000   1.0000   1.0000
     1.0000   1.0000   1.0000   1.0000   1.0000   1.0000   1.0000   1.0000
     1.0000   1.0000   1.0000   1.0000   1.0000   1.0000   1.0000   1.0000
     1.0000   1.0000   1.0000   1.0000   1.0000   1.0000   1.0000   1.0000
     1.0000   1.0000   1.0000   1.0000   1.0000   1.0000   1.0000   1.0000
     1.0000   1.0000   1.0000   1.0000   1.0000   1.0000   1.0000   1.0000
     1.0000   1.0000   1.0000   1.0000   1.0000   1.0000   1.0000   1.0000
     1.0000   1.0000   1.0000   1.0000   1.0000   1.0000   1.0000   1.0000
     1.0000   1.0000   1.0000   1.0000   1.0000   1.0000   1.0000   1.0000
     1.0000   1.0000   1.0000   1.0000   1.0000   1.0000   1.0000   1.0000
     1.0000   1.0000   0.0000   0.0000   0.0000   0.0000   0.0000   0.0000
     0.0000   0.0000   0.0000   0.0000   0.0000   0.0000   0.0000   0.0000
     0.0000   0.0000

          k =-0.0833 0.2500-0.3109 ( 10861 PWs)   bands (ev):

   -23.0406 -23.0344 -23.0226 -23.0180 -17.6185 -17.5468 -17.5347 -17.4798
   -17.2092 -17.1057 -17.0530 -17.0492 -17.0360 -16.9800 -16.9517 -16.8800
    -6.6400  -6.6277  -6.6070  -6.6036  -6.5744  -6.5666  -6.5553  -6.5373
    -6.5368  -6.5248  -6.5019  -6.5010  -2.8827  -2.7919  -1.9142  -1.8747
    -1.8657  -1.6629  -1.4731  -1.4593  -1.3661  -1.3582  -1.2690  -1.1248
    -1.0838  -1.0729  -0.9826  -0.8322  -0.6822  -0.5919  -0.5606  -0.5338
    -0.2673  -0.0500   0.1201   0.2915   0.7670   1.2759   1.4069   1.5424
     1.5613   1.6711   1.6834   1.7125   1.8133   1.8404   1.8722   1.8907
     1.9016   1.9453   1.9631   2.0053   2.0275   2.1380   2.1816   2.2578
     2.2919   2.3156   2.3498   2.3792   2.3857   2.4875   2.5396   2.7239
     2.7783   3.2562   6.3781   6.6637   9.9380  10.5200  12.0915  12.2649
    13.2745  13.3546  13.4077  13.4099  13.4675  13.5561  13.6704  13.7888
    14.5341  14.6604

     occupation numbers 
     1.0000   1.0000   1.0000   1.0000   1.0000   1.0000   1.0000   1.0000
     1.0000   1.0000   1.0000   1.0000   1.0000   1.0000   1.0000   1.0000
     1.0000   1.0000   1.0000   1.0000   1.0000   1.0000   1.0000   1.0000
     1.0000   1.0000   1.0000   1.0000   1.0000   1.0000   1.0000   1.0000
     1.0000   1.0000   1.0000   1.0000   1.0000   1.0000   1.0000   1.0000
     1.0000   1.0000   1.0000   1.0000   1.0000   1.0000   1.0000   1.0000
     1.0000   1.0000   1.0000   1.0000   1.0000   1.0000   1.0000   1.0000
     1.0000   1.0000   1.0000   1.0000   1.0000   1.0000   1.0000   1.0000
     1.0000   1.0000   1.0000   1.0000   1.0000   1.0000   1.0000   1.0000
     1.0000   1.0000   1.0000   1.0000   1.0000   1.0000   1.0000   1.0000
     1.0000   1.0000   0.0000   0.0000   0.0000   0.0000   0.0000   0.0000
     0.0000   0.0000   0.0000   0.0000   0.0000   0.0000   0.0000   0.0000
     0.0000   0.0000

          k =-0.0833 0.4167-0.0622 ( 10826 PWs)   bands (ev):

   -23.0420 -23.0346 -23.0211 -23.0161 -17.6669 -17.6315 -17.4117 -17.4088
   -17.2271 -17.1673 -17.0451 -17.0376 -17.0234 -17.0036 -16.9283 -16.9026
    -6.6626  -6.6211  -6.6182  -6.5729  -6.5676  -6.5600  -6.5555  -6.5385
    -6.5292  -6.5106  -6.4796  -6.4641  -2.9335  -2.9091  -2.0273  -1.9333
    -1.8964  -1.8929  -1.4718  -1.4681  -1.3595  -1.2367  -0.9586  -0.9558
    -0.9261  -0.9058  -0.8554  -0.7134  -0.5803  -0.5497  -0.5483  -0.4753
    -0.3560  -0.1976  -0.0798  -0.0083   1.0610   1.1339   1.2902   1.3779
     1.4591   1.5922   1.6993   1.7282   1.7893   1.8143   1.8819   1.8924
     1.9340   1.9509   2.0504   2.0663   2.0768   2.1804   2.1994   2.2283
     2.2804   2.3378   2.3703   2.3800   2.3840   2.4238   2.4653   2.6073
     2.8337   2.9544   6.4837   6.5455  10.0794  11.0218  12.0705  12.3704
    13.1570  13.2864  13.3290  13.4166  13.4919  13.5986  13.8521  14.1294
    14.4498  14.5995

     occupation numbers 
     1.0000   1.0000   1.0000   1.0000   1.0000   1.0000   1.0000   1.0000
     1.0000   1.0000   1.0000   1.0000   1.0000   1.0000   1.0000   1.0000
     1.0000   1.0000   1.0000   1.0000   1.0000   1.0000   1.0000   1.0000
     1.0000   1.0000   1.0000   1.0000   1.0000   1.0000   1.0000   1.0000
     1.0000   1.0000   1.0000   1.0000   1.0000   1.0000   1.0000   1.0000
     1.0000   1.0000   1.0000   1.0000   1.0000   1.0000   1.0000   1.0000
     1.0000   1.0000   1.0000   1.0000   1.0000   1.0000   1.0000   1.0000
     1.0000   1.0000   1.0000   1.0000   1.0000   1.0000   1.0000   1.0000
     1.0000   1.0000   1.0000   1.0000   1.0000   1.0000   1.0000   1.0000
     1.0000   1.0000   1.0000   1.0000   1.0000   1.0000   1.0000   1.0000
     1.0000   1.0000   0.0000   0.0000   0.0000   0.0000   0.0000   0.0000
     0.0000   0.0000   0.0000   0.0000   0.0000   0.0000   0.0000   0.0000
     0.0000   0.0000

          k =-0.0833 0.4167-0.1866 ( 10830 PWs)   bands (ev):

   -23.0392 -23.0321 -23.0240 -23.0186 -17.6407 -17.6068 -17.4610 -17.4464
   -17.2016 -17.1550 -17.0449 -17.0375 -17.0262 -17.0037 -16.9284 -16.9025
    -6.6457  -6.6109  -6.6105  -6.5739  -6.5697  -6.5622  -6.5541  -6.5447
    -6.5417  -6.5065  -6.4831  -6.4781  -2.8816  -2.8512  -1.9610  -1.8999
    -1.8810  -1.8480  -1.4358  -1.4314  -1.3543  -1.2364  -1.1118  -1.0539
    -1.0128  -0.9912  -0.8591  -0.7422  -0.7078  -0.6268  -0.5569  -0.5010
    -0.4008  -0.3103   0.0204   0.1052   1.1683   1.2655   1.3699   1.4403
     1.4877   1.6261   1.6533   1.7128   1.7881   1.8318   1.8565   1.8680
     1.9258   1.9410   1.9940   2.0156   2.0678   2.2101   2.2192   2.2661
     2.2795   2.3355   2.3605   2.3710   2.3790   2.4399   2.4786   2.6344
     2.8353   2.9628   6.4632   6.5436  10.2460  11.1312  11.5895  12.0480
    13.3322  13.4624  13.5558  13.6070  13.6256  13.6671  13.8665  14.0288
    14.4461  14.6611

     occupation numbers 
     1.0000   1.0000   1.0000   1.0000   1.0000   1.0000   1.0000   1.0000
     1.0000   1.0000   1.0000   1.0000   1.0000   1.0000   1.0000   1.0000
     1.0000   1.0000   1.0000   1.0000   1.0000   1.0000   1.0000   1.0000
     1.0000   1.0000   1.0000   1.0000   1.0000   1.0000   1.0000   1.0000
     1.0000   1.0000   1.0000   1.0000   1.0000   1.0000   1.0000   1.0000
     1.0000   1.0000   1.0000   1.0000   1.0000   1.0000   1.0000   1.0000
     1.0000   1.0000   1.0000   1.0000   1.0000   1.0000   1.0000   1.0000
     1.0000   1.0000   1.0000   1.0000   1.0000   1.0000   1.0000   1.0000
     1.0000   1.0000   1.0000   1.0000   1.0000   1.0000   1.0000   1.0000
     1.0000   1.0000   1.0000   1.0000   1.0000   1.0000   1.0000   1.0000
     1.0000   1.0000   0.0000   0.0000   0.0000   0.0000   0.0000   0.0000
     0.0000   0.0000   0.0000   0.0000   0.0000   0.0000   0.0000   0.0000
     0.0000   0.0000

          k =-0.0833 0.4167-0.3109 ( 10832 PWs)   bands (ev):

   -23.0344 -23.0288 -23.0278 -23.0228 -17.5934 -17.5628 -17.5258 -17.5015
   -17.1816 -17.1446 -17.0446 -17.0373 -17.0292 -17.0038 -16.9284 -16.9023
    -6.6165  -6.5988  -6.5936  -6.5843  -6.5812  -6.5696  -6.5648  -6.5588
    -6.5245  -6.5008  -6.4989  -6.4902  -2.8286  -2.7911  -1.8847  -1.8816
    -1.8147  -1.6997  -1.4015  -1.3916  -1.3650  -1.3363  -1.2994  -1.2347
    -1.0994  -1.0918  -0.8586  -0.8296  -0.7098  -0.6726  -0.5532  -0.5330
    -0.3891  -0.3501   0.0702   0.1545   1.2466   1.4344   1.4831   1.4993
     1.5626   1.5942   1.6788   1.6812   1.7558   1.8110   1.8307   1.8513
     1.8869   1.9105   1.9395   1.9740   2.0776   2.2058   2.2147   2.2572
     2.2859   2.3050   2.3647   2.3720   2.4067   2.4612   2.5321   2.6838
     2.8200   2.9709   6.4417   6.5418  10.5719  11.0451  11.3467  11.6754
    13.6118  13.6302  13.6700  13.7002  13.7646  13.8440  13.8660  13.9112
    14.5145  14.7392

     occupation numbers 
     1.0000   1.0000   1.0000   1.0000   1.0000   1.0000   1.0000   1.0000
     1.0000   1.0000   1.0000   1.0000   1.0000   1.0000   1.0000   1.0000
     1.0000   1.0000   1.0000   1.0000   1.0000   1.0000   1.0000   1.0000
     1.0000   1.0000   1.0000   1.0000   1.0000   1.0000   1.0000   1.0000
     1.0000   1.0000   1.0000   1.0000   1.0000   1.0000   1.0000   1.0000
     1.0000   1.0000   1.0000   1.0000   1.0000   1.0000   1.0000   1.0000
     1.0000   1.0000   1.0000   1.0000   1.0000   1.0000   1.0000   1.0000
     1.0000   1.0000   1.0000   1.0000   1.0000   1.0000   1.0000   1.0000
     1.0000   1.0000   1.0000   1.0000   1.0000   1.0000   1.0000   1.0000
     1.0000   1.0000   1.0000   1.0000   1.0000   1.0000   1.0000   1.0000
     1.0000   1.0000   0.0000   0.0000   0.0000   0.0000   0.0000   0.0000
     0.0000   0.0000   0.0000   0.0000   0.0000   0.0000   0.0000   0.0000
     0.0000   0.0000

          k =-0.2500 0.2500-0.0622 ( 10858 PWs)   bands (ev):

   -23.0457 -23.0309 -23.0238 -23.0138 -17.6845 -17.6134 -17.4136 -17.4076
   -17.2536 -17.1300 -17.0564 -17.0373 -17.0290 -16.9700 -16.9641 -16.8939
    -6.6828  -6.6420  -6.5995  -6.5780  -6.5604  -6.5550  -6.5522  -6.5437
    -6.5343  -6.4889  -6.4852  -6.4568  -2.9757  -2.9100  -2.1272  -1.9392
    -1.9109  -1.8942  -1.4722  -1.4637  -1.4157  -1.1661  -1.0101  -0.9501
    -0.9476  -0.9283  -0.9259  -0.6103  -0.5871  -0.5608  -0.4824  -0.4326
    -0.1935  -0.0556   0.1401   0.4044   0.5054   0.9410   1.2535   1.2852
     1.4179   1.5183   1.7745   1.7957   1.8326   1.8619   1.8639   1.8774
     1.8976   1.9843   1.9976   2.0353   2.0823   2.1157   2.1244   2.2260
     2.2817   2.3398   2.3708   2.3787   2.3982   2.4319   2.4901   2.5496
     2.8569   3.0756   6.4695   6.5990   9.7269  11.8932  11.9707  12.6372
    12.8681  13.0476  13.1930  13.2094  13.2451  13.4578  13.9749  14.2332
    14.4192  14.7125

     occupation numbers 
     1.0000   1.0000   1.0000   1.0000   1.0000   1.0000   1.0000   1.0000
     1.0000   1.0000   1.0000   1.0000   1.0000   1.0000   1.0000   1.0000
     1.0000   1.0000   1.0000   1.0000   1.0000   1.0000   1.0000   1.0000
     1.0000   1.0000   1.0000   1.0000   1.0000   1.0000   1.0000   1.0000
     1.0000   1.0000   1.0000   1.0000   1.0000   1.0000   1.0000   1.0000
     1.0000   1.0000   1.0000   1.0000   1.0000   1.0000   1.0000   1.0000
     1.0000   1.0000   1.0000   1.0000   1.0000   1.0000   1.0000   1.0000
     1.0000   1.0000   1.0000   1.0000   1.0000   1.0000   1.0000   1.0000
     1.0000   1.0000   1.0000   1.0000   1.0000   1.0000   1.0000   1.0000
     1.0000   1.0000   1.0000   1.0000   1.0000   1.0000   1.0000   1.0000
     1.0000   1.0000   0.0000   0.0000   0.0000   0.0000   0.0000   0.0000
     0.0000   0.0000   0.0000   0.0000   0.0000   0.0000   0.0000   0.0000
     0.0000   0.0000

          k =-0.2500 0.2500-0.1866 ( 10844 PWs)   bands (ev):

   -23.0428 -23.0285 -23.0268 -23.0159 -17.6577 -17.5898 -17.4696 -17.4401
   -17.2209 -17.1233 -17.0564 -17.0371 -17.0327 -16.9690 -16.9641 -16.8935
    -6.6604  -6.6314  -6.5931  -6.5703  -6.5680  -6.5655  -6.5509  -6.5439
    -6.5274  -6.4975  -6.4917  -6.4805  -2.9325  -2.8508  -2.0487  -1.8980
    -1.8872  -1.8638  -1.4492  -1.4305  -1.3988  -1.1933  -1.1658  -1.0239
    -1.0094  -1.0011  -0.9236  -0.7638  -0.6102  -0.6079  -0.5288  -0.5165
    -0.2612   0.0136   0.2130   0.4420   0.4807   1.1526   1.3431   1.3869
     1.4428   1.5890   1.7296   1.7555   1.8375   1.8604   1.8656   1.8778
     1.8969   1.9061   1.9737   2.0005   2.0647   2.1022   2.1371   2.2740
     2.3138   2.3261   2.3318   2.3682   2.3942   2.4846   2.5191   2.5304
     2.8483   3.1069   6.4381   6.6002   9.9199  11.4345  11.9633  12.5023
    12.9397  13.2106  13.2203  13.2948  13.4871  13.5946  14.0941  14.1060
    14.2864  14.7300

     occupation numbers 
     1.0000   1.0000   1.0000   1.0000   1.0000   1.0000   1.0000   1.0000
     1.0000   1.0000   1.0000   1.0000   1.0000   1.0000   1.0000   1.0000
     1.0000   1.0000   1.0000   1.0000   1.0000   1.0000   1.0000   1.0000
     1.0000   1.0000   1.0000   1.0000   1.0000   1.0000   1.0000   1.0000
     1.0000   1.0000   1.0000   1.0000   1.0000   1.0000   1.0000   1.0000
     1.0000   1.0000   1.0000   1.0000   1.0000   1.0000   1.0000   1.0000
     1.0000   1.0000   1.0000   1.0000   1.0000   1.0000   1.0000   1.0000
     1.0000   1.0000   1.0000   1.0000   1.0000   1.0000   1.0000   1.0000
     1.0000   1.0000   1.0000   1.0000   1.0000   1.0000   1.0000   1.0000
     1.0000   1.0000   1.0000   1.0000   1.0000   1.0000   1.0000   1.0000
     1.0000   1.0000   0.0000   0.0000   0.0000   0.0000   0.0000   0.0000
     0.0000   0.0000   0.0000   0.0000   0.0000   0.0000   0.0000   0.0000
     0.0000   0.0000

          k =-0.2500 0.2500-0.3109 ( 10829 PWs)   bands (ev):

   -23.0377 -23.0319 -23.0244 -23.0198 -17.6091 -17.5478 -17.5387 -17.4900
   -17.1964 -17.1174 -17.0564 -17.0381 -17.0358 -16.9680 -16.9642 -16.8931
    -6.6236  -6.6131  -6.5933  -6.5881  -6.5761  -6.5632  -6.5482  -6.5293
    -6.5173  -6.5156  -6.5124  -6.5023  -2.8897  -2.7890  -1.9068  -1.8850
    -1.8737  -1.6976  -1.4676  -1.4403  -1.3662  -1.3605  -1.2881  -1.1655
    -1.0974  -1.0788  -0.9227  -0.8569  -0.6230  -0.6101  -0.5705  -0.5479
    -0.3041   0.0650   0.2992   0.4370   0.4695   1.3479   1.4418   1.4758
     1.5460   1.6306   1.6851   1.7155   1.7500   1.8187   1.8541   1.8829
     1.8945   1.9113   1.9207   2.0258   2.0473   2.0856   2.1433   2.2608
     2.2845   2.2950   2.3405   2.3713   2.4158   2.4655   2.5052   2.6613
     2.8130   3.1410   6.4037   6.6029  10.2939  10.8275  12.0891  12.3108
    13.0450  13.1430  13.4400  13.5499  13.5678  13.8083  13.8920  14.0535
    14.3835  14.7202

     occupation numbers 
     1.0000   1.0000   1.0000   1.0000   1.0000   1.0000   1.0000   1.0000
     1.0000   1.0000   1.0000   1.0000   1.0000   1.0000   1.0000   1.0000
     1.0000   1.0000   1.0000   1.0000   1.0000   1.0000   1.0000   1.0000
     1.0000   1.0000   1.0000   1.0000   1.0000   1.0000   1.0000   1.0000
     1.0000   1.0000   1.0000   1.0000   1.0000   1.0000   1.0000   1.0000
     1.0000   1.0000   1.0000   1.0000   1.0000   1.0000   1.0000   1.0000
     1.0000   1.0000   1.0000   1.0000   1.0000   1.0000   1.0000   1.0000
     1.0000   1.0000   1.0000   1.0000   1.0000   1.0000   1.0000   1.0000
     1.0000   1.0000   1.0000   1.0000   1.0000   1.0000   1.0000   1.0000
     1.0000   1.0000   1.0000   1.0000   1.0000   1.0000   1.0000   1.0000
     1.0000   1.0000   0.0000   0.0000   0.0000   0.0000   0.0000   0.0000
     0.0000   0.0000   0.0000   0.0000   0.0000   0.0000   0.0000   0.0000
     0.0000   0.0000

          k =-0.2500 0.4167-0.0622 ( 10843 PWs)   bands (ev):

   -23.0403 -23.0349 -23.0207 -23.0171 -17.6655 -17.6395 -17.4133 -17.4112
   -17.2123 -17.1658 -17.0514 -17.0423 -17.0128 -16.9906 -16.9430 -16.9165
    -6.6524  -6.6221  -6.6142  -6.5814  -6.5524  -6.5461  -6.5345  -6.5270
    -6.5207  -6.4866  -6.4791  -6.4673  -2.9581  -2.9290  -2.0942  -2.0155
    -1.9259  -1.9183  -1.4870  -1.4823  -1.3318  -1.2413  -0.9841  -0.9475
    -0.9431  -0.8917  -0.8227  -0.7063  -0.5678  -0.5120  -0.5045  -0.2959
    -0.1629  -0.1369  -0.0013   0.2286   0.8544   0.9973   1.1874   1.2540
     1.4827   1.6244   1.7120   1.7439   1.7782   1.8047   1.8492   1.8515
     1.8704   1.8853   2.0312   2.0445   2.0670   2.1246   2.1625   2.1818
     2.2528   2.3016   2.3504   2.3638   2.3750   2.4271   2.4501   2.5187
     2.8749   2.9272   6.4968   6.5431  10.4426  11.2798  12.2780  12.5460
    12.8367  13.0056  13.4084  13.5601  13.6877  13.7011  13.7970  14.2433
    14.5209  14.5296

     occupation numbers 
     1.0000   1.0000   1.0000   1.0000   1.0000   1.0000   1.0000   1.0000
     1.0000   1.0000   1.0000   1.0000   1.0000   1.0000   1.0000   1.0000
     1.0000   1.0000   1.0000   1.0000   1.0000   1.0000   1.0000   1.0000
     1.0000   1.0000   1.0000   1.0000   1.0000   1.0000   1.0000   1.0000
     1.0000   1.0000   1.0000   1.0000   1.0000   1.0000   1.0000   1.0000
     1.0000   1.0000   1.0000   1.0000   1.0000   1.0000   1.0000   1.0000
     1.0000   1.0000   1.0000   1.0000   1.0000   1.0000   1.0000   1.0000
     1.0000   1.0000   1.0000   1.0000   1.0000   1.0000   1.0000   1.0000
     1.0000   1.0000   1.0000   1.0000   1.0000   1.0000   1.0000   1.0000
     1.0000   1.0000   1.0000   1.0000   1.0000   1.0000   1.0000   1.0000
     1.0000   1.0000   0.0000   0.0000   0.0000   0.0000   0.0000   0.0000
     0.0000   0.0000   0.0000   0.0000   0.0000   0.0000   0.0000   0.0000
     0.0000   0.0000

          k =-0.2500 0.4167-0.1866 ( 10828 PWs)   bands (ev):

   -23.0376 -23.0324 -23.0232 -23.0193 -17.6391 -17.6143 -17.4604 -17.4498
   -17.1903 -17.1534 -17.0514 -17.0421 -17.0147 -16.9905 -16.9427 -16.9161
    -6.6339  -6.6101  -6.6046  -6.5716  -6.5598  -6.5527  -6.5435  -6.5294
    -6.5179  -6.4905  -6.4893  -6.4827  -2.9114  -2.8749  -2.0165  -1.9449
    -1.9073  -1.9032  -1.4528  -1.4492  -1.3289  -1.2408  -1.1670  -1.0823
    -1.0126  -1.0088  -0.8221  -0.7070  -0.6418  -0.5596  -0.4814  -0.4201
    -0.2969  -0.0965   0.1120   0.3076   0.8908   1.1435   1.2792   1.3314
     1.4968   1.6395   1.6592   1.7354   1.7668   1.8172   1.8459   1.8540
     1.8625   1.8848   1.9565   1.9839   2.0671   2.1607   2.1981   2.2039
     2.2962   2.3085   2.3354   2.3727   2.3871   2.4082   2.4606   2.4802
     2.8892   2.9697   6.4758   6.5323  10.5992  11.3913  11.8538  12.2800
    12.9547  13.1606  13.5059  13.5827  13.7017  13.8268  13.9573  14.1876
    14.5305  14.5707

     occupation numbers 
     1.0000   1.0000   1.0000   1.0000   1.0000   1.0000   1.0000   1.0000
     1.0000   1.0000   1.0000   1.0000   1.0000   1.0000   1.0000   1.0000
     1.0000   1.0000   1.0000   1.0000   1.0000   1.0000   1.0000   1.0000
     1.0000   1.0000   1.0000   1.0000   1.0000   1.0000   1.0000   1.0000
     1.0000   1.0000   1.0000   1.0000   1.0000   1.0000   1.0000   1.0000
     1.0000   1.0000   1.0000   1.0000   1.0000   1.0000   1.0000   1.0000
     1.0000   1.0000   1.0000   1.0000   1.0000   1.0000   1.0000   1.0000
     1.0000   1.0000   1.0000   1.0000   1.0000   1.0000   1.0000   1.0000
     1.0000   1.0000   1.0000   1.0000   1.0000   1.0000   1.0000   1.0000
     1.0000   1.0000   1.0000   1.0000   1.0000   1.0000   1.0000   1.0000
     1.0000   1.0000   0.0000   0.0000   0.0000   0.0000   0.0000   0.0000
     0.0000   0.0000   0.0000   0.0000   0.0000   0.0000   0.0000   0.0000
     0.0000   0.0000

          k =-0.2500 0.4167-0.3109 ( 10817 PWs)   bands (ev):

   -23.0330 -23.0281 -23.0277 -23.0233 -17.5916 -17.5692 -17.5242 -17.5065
   -17.1726 -17.1429 -17.0513 -17.0419 -17.0167 -16.9904 -16.9424 -16.9158
    -6.6036  -6.5906  -6.5874  -6.5759  -6.5683  -6.5631  -6.5539  -6.5367
    -6.5125  -6.5017  -6.4983  -6.4960  -2.8648  -2.8195  -1.8988  -1.8966
    -1.8559  -1.7817  -1.4465  -1.4161  -1.3897  -1.3647  -1.3210  -1.2396
    -1.1004  -1.0907  -0.8211  -0.7072  -0.6882  -0.6037  -0.4934  -0.4384
    -0.3721  -0.0643   0.1693   0.3529   0.9205   1.3069   1.4016   1.4113
     1.5160   1.5559   1.6870   1.6939   1.7566   1.8102   1.8223   1.8594
     1.8718   1.8756   1.8998   1.9441   2.0757   2.1925   2.2054   2.2285
     2.2905   2.3007   2.3176   2.3616   2.3985   2.4072   2.4361   2.5278
     2.9034   3.0158   6.4528   6.5222  10.9042  11.3512  11.6062  11.9361
    13.1549  13.3760  13.4132  13.6312  13.7586  14.0357  14.0631  14.0977
    14.4554  14.5279

     occupation numbers 
     1.0000   1.0000   1.0000   1.0000   1.0000   1.0000   1.0000   1.0000
     1.0000   1.0000   1.0000   1.0000   1.0000   1.0000   1.0000   1.0000
     1.0000   1.0000   1.0000   1.0000   1.0000   1.0000   1.0000   1.0000
     1.0000   1.0000   1.0000   1.0000   1.0000   1.0000   1.0000   1.0000
     1.0000   1.0000   1.0000   1.0000   1.0000   1.0000   1.0000   1.0000
     1.0000   1.0000   1.0000   1.0000   1.0000   1.0000   1.0000   1.0000
     1.0000   1.0000   1.0000   1.0000   1.0000   1.0000   1.0000   1.0000
     1.0000   1.0000   1.0000   1.0000   1.0000   1.0000   1.0000   1.0000
     1.0000   1.0000   1.0000   1.0000   1.0000   1.0000   1.0000   1.0000
     1.0000   1.0000   1.0000   1.0000   1.0000   1.0000   1.0000   1.0000
     1.0000   1.0000   0.0000   0.0000   0.0000   0.0000   0.0000   0.0000
     0.0000   0.0000   0.0000   0.0000   0.0000   0.0000   0.0000   0.0000
     0.0000   0.0000

          k =-0.4167 0.4167-0.0622 ( 10810 PWs)   bands (ev):

   -23.0379 -23.0359 -23.0198 -23.0185 -17.6607 -17.6512 -17.4146 -17.4139
   -17.1898 -17.1713 -17.0555 -17.0503 -16.9929 -16.9717 -16.9627 -16.9399
    -6.6383  -6.6272  -6.6050  -6.5931  -6.5400  -6.5378  -6.5248  -6.5217
    -6.4809  -6.4769  -6.4725  -6.4680  -2.9721  -2.9589  -2.1288  -2.1014
    -1.9524  -1.9495  -1.4988  -1.4970  -1.2931  -1.2601  -1.0193  -0.9797
    -0.9405  -0.9397  -0.7692  -0.7251  -0.5151  -0.4949  -0.2198  -0.2164
    -0.1381   0.1663   0.1745   0.4015   0.5949   0.8145   1.1047   1.1144
     1.5241   1.6661   1.6794   1.7178   1.7772   1.7881   1.7953   1.8138
     1.8186   1.8308   1.9193   1.9954   2.0546   2.0590   2.0724   2.1129
     2.2025   2.2313   2.3735   2.3766   2.3882   2.4075   2.5129   2.5393
     2.8798   2.8983   6.5183   6.5351  11.0298  11.4868  12.3557  12.5408
    12.5996  12.6798  13.4950  13.6036  13.8946  13.9345  14.3136  14.3217
    14.3394  14.6618

     occupation numbers 
     1.0000   1.0000   1.0000   1.0000   1.0000   1.0000   1.0000   1.0000
     1.0000   1.0000   1.0000   1.0000   1.0000   1.0000   1.0000   1.0000
     1.0000   1.0000   1.0000   1.0000   1.0000   1.0000   1.0000   1.0000
     1.0000   1.0000   1.0000   1.0000   1.0000   1.0000   1.0000   1.0000
     1.0000   1.0000   1.0000   1.0000   1.0000   1.0000   1.0000   1.0000
     1.0000   1.0000   1.0000   1.0000   1.0000   1.0000   1.0000   1.0000
     1.0000   1.0000   1.0000   1.0000   1.0000   1.0000   1.0000   1.0000
     1.0000   1.0000   1.0000   1.0000   1.0000   1.0000   1.0000   1.0000
     1.0000   1.0000   1.0000   1.0000   1.0000   1.0000   1.0000   1.0000
     1.0000   1.0000   1.0000   1.0000   1.0000   1.0000   1.0000   1.0000
     1.0000   1.0000   0.0000   0.0000   0.0000   0.0000   0.0000   0.0000
     0.0000   0.0000   0.0000   0.0000   0.0000   0.0000   0.0000   0.0000
     0.0000   0.0000

          k =-0.4167 0.4167-0.1866 ( 10835 PWs)   bands (ev):

   -23.0354 -23.0334 -23.0220 -23.0205 -17.6343 -17.6253 -17.4584 -17.4546
   -17.1724 -17.1575 -17.0554 -17.0501 -16.9936 -16.9711 -16.9629 -16.9396
    -6.6181  -6.6107  -6.5964  -6.5830  -6.5488  -6.5467  -6.5242  -6.5146
    -6.4962  -6.4902  -6.4855  -6.4754  -2.9277  -2.9114  -2.0458  -2.0210
    -1.9313  -1.9290  -1.4678  -1.4662  -1.2921  -1.2594  -1.1986  -1.1629
    -1.0119  -1.0117  -0.7687  -0.7254  -0.5692  -0.5468  -0.3677  -0.3387
    -0.0911   0.2516   0.3008   0.4726   0.5615   0.8925   1.2002   1.2048
     1.5333   1.6287   1.6538   1.6693   1.7716   1.8040   1.8204   1.8204
     1.8409   1.8460   1.9379   1.9455   2.0491   2.0634   2.0744   2.1900
     2.2094   2.2382   2.3577   2.3649   2.3821   2.4065   2.4688   2.4979
     2.9316   2.9607   6.4962   6.5157  11.1680  11.5997  12.2395  12.4573
    12.5046  12.7461  13.5503  13.6296  13.6755  13.7445  14.3978  14.4185
    14.4669  14.7205

     occupation numbers 
     1.0000   1.0000   1.0000   1.0000   1.0000   1.0000   1.0000   1.0000
     1.0000   1.0000   1.0000   1.0000   1.0000   1.0000   1.0000   1.0000
     1.0000   1.0000   1.0000   1.0000   1.0000   1.0000   1.0000   1.0000
     1.0000   1.0000   1.0000   1.0000   1.0000   1.0000   1.0000   1.0000
     1.0000   1.0000   1.0000   1.0000   1.0000   1.0000   1.0000   1.0000
     1.0000   1.0000   1.0000   1.0000   1.0000   1.0000   1.0000   1.0000
     1.0000   1.0000   1.0000   1.0000   1.0000   1.0000   1.0000   1.0000
     1.0000   1.0000   1.0000   1.0000   1.0000   1.0000   1.0000   1.0000
     1.0000   1.0000   1.0000   1.0000   1.0000   1.0000   1.0000   1.0000
     1.0000   1.0000   1.0000   1.0000   1.0000   1.0000   1.0000   1.0000
     1.0000   1.0000   0.0000   0.0000   0.0000   0.0000   0.0000   0.0000
     0.0000   0.0000   0.0000   0.0000   0.0000   0.0000   0.0000   0.0000
     0.0000   0.0000

          k =-0.4167 0.4167-0.3109 ( 10824 PWs)   bands (ev):

   -23.0310 -23.0292 -23.0260 -23.0244 -17.5868 -17.5787 -17.5202 -17.5138
   -17.1582 -17.1458 -17.0553 -17.0499 -16.9942 -16.9704 -16.9630 -16.9392
    -6.5852  -6.5828  -6.5815  -6.5642  -6.5629  -6.5611  -6.5435  -6.5284
    -6.5024  -6.5000  -6.4932  -6.4879  -2.8838  -2.8637  -1.9122  -1.9099
    -1.8783  -1.8559  -1.4752  -1.4426  -1.4287  -1.4192  -1.2899  -1.2588
    -1.0962  -1.0923  -0.7684  -0.7257  -0.6151  -0.5931  -0.4385  -0.4037
    -0.0583   0.3575   0.3701   0.5011   0.5163   0.9590   1.3304   1.3411
     1.4870   1.5110   1.6466   1.6600   1.7920   1.8164   1.8215   1.8377
     1.8564   1.8601   1.8970   1.9802   2.0340   2.0590   2.0871   2.2163
     2.2421   2.2461   2.3454   2.3600   2.3745   2.4069   2.4166   2.4475
     2.9870   3.0260   6.4725   6.4963  11.4328  11.8112  11.8290  12.1480
    12.7808  13.0195  13.1456  13.3572  13.8884  14.0098  14.2162  14.3278
    14.5428  14.6630

     occupation numbers 
     1.0000   1.0000   1.0000   1.0000   1.0000   1.0000   1.0000   1.0000
     1.0000   1.0000   1.0000   1.0000   1.0000   1.0000   1.0000   1.0000
     1.0000   1.0000   1.0000   1.0000   1.0000   1.0000   1.0000   1.0000
     1.0000   1.0000   1.0000   1.0000   1.0000   1.0000   1.0000   1.0000
     1.0000   1.0000   1.0000   1.0000   1.0000   1.0000   1.0000   1.0000
     1.0000   1.0000   1.0000   1.0000   1.0000   1.0000   1.0000   1.0000
     1.0000   1.0000   1.0000   1.0000   1.0000   1.0000   1.0000   1.0000
     1.0000   1.0000   1.0000   1.0000   1.0000   1.0000   1.0000   1.0000
     1.0000   1.0000   1.0000   1.0000   1.0000   1.0000   1.0000   1.0000
     1.0000   1.0000   1.0000   1.0000   1.0000   1.0000   1.0000   1.0000
     1.0000   1.0000   0.0000   0.0000   0.0000   0.0000   0.0000   0.0000
     0.0000   0.0000   0.0000   0.0000   0.0000   0.0000   0.0000   0.0000
     0.0000   0.0000

     the Fermi energy is     6.3470 ev

!    total energy              =   -1311.49405964 Ry
     estimated scf accuracy    <       0.00000031 Ry

     The total energy is the sum of the following terms:
     one-electron contribution =    -562.74601397 Ry
     hartree contribution      =     409.09251222 Ry
     xc contribution           =    -339.13425009 Ry
     ewald contribution        =    -818.90071932 Ry
     Hubbard energy            =       0.19441151 Ry

     total magnetization       =     0.00 Bohr mag/cell
     absolute magnetization    =     3.82 Bohr mag/cell

     convergence has been achieved in  13 iterations

     Writing all to output data dir ./KCuF3.save/
 
     init_run     :      6.15s CPU      6.66s WALL (       1 calls)
     electrons    :     92.56s CPU    106.74s WALL (       1 calls)

     Called by init_run:
     wfcinit      :      2.53s CPU      2.65s WALL (       1 calls)
     wfcinit:atom :      0.01s CPU      0.01s WALL (       9 calls)
     wfcinit:wfcr :      1.62s CPU      1.71s WALL (       9 calls)
     potinit      :      0.84s CPU      0.91s WALL (       1 calls)
     hinit0       :      2.08s CPU      2.33s WALL (       1 calls)

     Called by electrons:
     c_bands      :     71.11s CPU     76.34s WALL (      13 calls)
     sum_band     :     15.47s CPU     21.27s WALL (      13 calls)
     v_of_rho     :      2.25s CPU      2.64s WALL (      14 calls)
     v_h          :      0.03s CPU      0.04s WALL (      14 calls)
     v_xc         :      2.22s CPU      2.59s WALL (      14 calls)
     newd         :      2.52s CPU      3.35s WALL (      14 calls)
     mix_rho      :      0.13s CPU      0.14s WALL (      13 calls)

     Called by c_bands:
     init_us_2    :      0.53s CPU      0.55s WALL (     252 calls)
     init_us_2:cp :      0.53s CPU      0.55s WALL (     252 calls)
     cegterg      :     66.10s CPU     68.85s WALL (     117 calls)

     Called by sum_band:
     sum_band:wei :      3.51s CPU      3.52s WALL (      13 calls)
     sum_band:loo :      6.75s CPU      7.31s WALL (      13 calls)
     sum_band:buf :      0.10s CPU      0.10s WALL (     117 calls)
     sum_band:ini :      0.21s CPU      0.22s WALL (     117 calls)
     sum_band:cal :      2.03s CPU      2.06s WALL (     117 calls)
     sum_band:bec :      0.06s CPU      0.06s WALL (     117 calls)
     addusdens    :      2.18s CPU      3.58s WALL (      13 calls)
                                        0.00s GPU  (      13 calls)
     addusd:skk   :      0.00s CPU      0.00s WALL (      78 calls)
                                        0.00s GPU  (      78 calls)

     Called by *egterg:
     cdiaghg      :     11.45s CPU     11.51s WALL (     614 calls)
     cegterg:over :      5.14s CPU      5.21s WALL (     497 calls)
     cegterg:upda :      2.65s CPU      2.66s WALL (     497 calls)
     cegterg:last :      6.12s CPU      6.13s WALL (     240 calls)
     h_psi        :     33.46s CPU     36.08s WALL (     623 calls)
     s_psi        :      6.22s CPU      6.24s WALL (     632 calls)
     g_psi        :      0.15s CPU      0.15s WALL (     497 calls)

     Called by h_psi:
     h_psi:calbec :      5.73s CPU      5.88s WALL (     623 calls)
     vloc_psi     :     20.20s CPU     22.59s WALL (     623 calls)
     add_vuspsi   :      5.99s CPU      6.02s WALL (     623 calls)
     vhpsi        :      1.32s CPU      1.37s WALL (     623 calls)

     General routines
     calbec       :      8.77s CPU      8.99s WALL (    1489 calls)
     fft          :      0.42s CPU      0.70s WALL (     344 calls)
     ffts         :      0.35s CPU      1.02s WALL (      54 calls)
     fftw         :     20.68s CPU     23.16s WALL (   72108 calls)
     interpolate  :      0.05s CPU      0.07s WALL (      28 calls)
     davcio       :      0.00s CPU      0.00s WALL (       9 calls)
 
     Parallel routines

     Hubbard U routines
     new_ns       :      0.43s CPU      0.48s WALL (      13 calls)
     vhpsi        :      1.32s CPU      1.37s WALL (     623 calls)
 
     PWSCF        :   1m40.15s CPU   2m 3.35s WALL

 
   This run was terminated on:  10:23: 8  27Nov2024            

=------------------------------------------------------------------------------=
   JOB DONE.
=------------------------------------------------------------------------------=
