
     Program PWSCF v.7.5 starts on 16Jun2026 at 14:14:12 

     This program is part of the open-source Quantum ESPRESSO suite
     for quantum simulation of materials; please cite
         "P. Giannozzi et al., J. Phys.:Condens. Matter 21 395502 (2009);
         "P. Giannozzi et al., J. Phys.:Condens. Matter 29 465901 (2017);
         "P. Giannozzi et al., J. Chem. Phys. 152 154105 (2020);
          URL http://www.quantum-espresso.org", 
     in publications or presentations arising from this work. More details at
     http://www.quantum-espresso.org/quote

     Parallel version (MPI), running on   192 processors

     MPI processes distributed on     4 nodes
     59504 MiB available memory on the printing compute node when the environment starts

     Waiting for input...
     Reading input from standard input

     Current dimensions of program PWSCF are:
     Max number of different atomic species (ntypx) = 10
     Max number of k-points (npk) =  40000
     Max angular momentum in pseudopotentials (lmaxx) =  4
     file O.pbe-n-kjpaw_psl.0.1.UPF: wavefunction(s)  2P renormalized
     file La.pbe-spfn-kjpaw_psl.1.0.0.UPF: wavefunction(s)  5S 5D 4F renormalized
     Message from routine setup:
     using ibrav=0 with symmetry is DISCOURAGED, use correct ibrav instead

     K-points division:     npool     =      48
     R & G space division:  proc/nbgrp/npool/nimage =       4
     Subspace diagonalization in iterative solution of the eigenvalue problem:
     a serial algorithm will be used


     Parallelization info
     --------------------
     sticks:   dense  smooth     PW     G-vecs:    dense   smooth      PW
     Min        2519     838    229               257903    49670    7129
     Max        2520     840    230               257904    49671    7132
     Sum       10079    3357    919              1031615   198681   28525

     Using Slab Decomposition



     bravais-lattice index     =            0
     lattice parameter (alat)  =      10.5560  a.u.
     unit-cell volume          =    1721.3797 (a.u.)^3
     number of atoms/cell      =           20
     number of atomic types    =            3
     number of electrons       =       176.00
     number of Kohn-Sham states=          106
     kinetic-energy cutoff     =      90.0000  Ry
     charge density cutoff     =    1080.0000  Ry
     scf convergence threshold =      1.0E-08
     mixing beta               =       0.7000
     number of iterations used =            8  plain     mixing
     Exchange-correlation= SLA  PW   PBX  PBC
                           (   1   4   3   4   0   0   0)
     Hubbard projectors: atomic
     Hubbard parameters of DFT+U (Dudarev formulation) in eV:
     U(Mn-3d) =  2.0000

     Internal variables: lda_plus_u =T, lda_plus_u_kind = 0

     Internal variables: orbital_resolved =F, hub_pot_fix =F, apply_U = F

     celldm(1)=  10.556003  celldm(2)=   0.000000  celldm(3)=   0.000000
     celldm(4)=   0.000000  celldm(5)=   0.000000  celldm(6)=   0.000000

     crystal axes: (cart. coord. in units of alat)
               a(1) = (   1.000000   0.000000   0.000000 )  
               a(2) = (   0.000000   1.051098   0.000000 )  
               a(3) = (   0.000000   0.000000   1.392307 )  

     reciprocal axes: (cart. coord. in units 2 pi/alat)
               b(1) = (  1.000000  0.000000  0.000000 )  
               b(2) = (  0.000000  0.951386  0.000000 )  
               b(3) = (  0.000000  0.000000  0.718233 )  


     PseudoPot. # 1 for O  read from file:
     ../pseudos/O.pbe-n-kjpaw_psl.0.1.UPF
     MD5 check sum: 0234752ac141de4415c5fc33072bef88
     Pseudo is Projector augmented-wave + core cor, Zval =  6.0
     Generated using "atomic" code by A. Dal Corso  v.5.0.99 svn rev. 10869
     Shape of augmentation charge: BESSEL
     Using radial grid of 1095 points,  4 beta functions with: 
                l(1) =   0
                l(2) =   0
                l(3) =   1
                l(4) =   1
     Q(r) pseudized with 0 coefficients 


     PseudoPot. # 2 for Mn read from file:
     ../pseudos/mn_pbe_v1.5.uspp.F.UPF
     MD5 check sum: 82ef2b46521d7a7d9e736dc3972e4928
     Pseudo is Ultrasoft + core correction, Zval = 15.0
     Generated by new atomic code, or converted to UPF format
     Using radial grid of  859 points,  6 beta functions with: 
                l(1) =   0
                l(2) =   0
                l(3) =   1
                l(4) =   1
                l(5) =   2
                l(6) =   2
     Q(r) pseudized with  8 coefficients,  rinner =    0.950   0.950   0.950
                                                       0.950   0.950

     PseudoPot. # 3 for La read from file:
     ../pseudos/La.pbe-spfn-kjpaw_psl.1.0.0.UPF
     MD5 check sum: 6e6ac421535d279511fd22156ed99225
     Pseudo is Projector augmented-wave + core cor, Zval = 11.0
     Generated using &quot;atomic&quot; code by A. Dal Corso  v.6.2.2
     Shape of augmentation charge: PSQ
     Using radial grid of 1253 points,  8 beta functions with: 
                l(1) =   0
                l(2) =   0
                l(3) =   1
                l(4) =   1
                l(5) =   2
                l(6) =   2
                l(7) =   3
                l(8) =   3
     Q(r) pseudized with 0 coefficients 


     atomic species   valence    mass     pseudopotential
     O                 6.00    15.99940     O ( 1.00)
     Mn               15.00    54.93805     Mn( 1.00)
     La               11.00   138.90547     La( 1.00)

     Starting magnetic structure 
     atomic species   magnetization
     O               0.000
     Mn              0.800
     La              0.000

      8 Sym. Ops., with inversion, found ( 6 have fractional translation)



   Cartesian axes

     site n.     atom                  positions (alat units)
         1        La     tau(   1) = (   0.5111510   0.0605559   0.3480767  )
         2        La     tau(   2) = (   0.4888490   0.9905422   1.0442300  )
         3        La     tau(   3) = (   0.0111510   0.4649932   1.0442300  )
         4        La     tau(   4) = (   0.9888490   0.5861049   0.3480767  )
         5        Mn     tau(   5) = (   0.0000000   0.0000000   0.0000000  )
         6        Mn     tau(   6) = (   0.5000000   0.5255491   0.0000000  )
         7        Mn     tau(   7) = (   0.5000000   0.5255491   0.6961534  )
         8        Mn     tau(   8) = (   0.0000000   0.0000000   0.6961534  )
         9        O      tau(   9) = (   0.2809770   0.1996698   0.7572742  )
        10        O      tau(  10) = (   0.7190230   0.8514284   0.6350325  )
        11        O      tau(  11) = (   0.7809770   0.3258793   0.6350325  )
        12        O      tau(  12) = (   0.2190230   0.7252188   0.7572742  )
        13        O      tau(  13) = (   0.2190230   0.7252188   1.3311859  )
        14        O      tau(  14) = (   0.7809770   0.3258793   0.0611209  )
        15        O      tau(  15) = (   0.7190230   0.8514284   0.0611209  )
        16        O      tau(  16) = (   0.2809770   0.1996698   1.3311859  )
        17        O      tau(  17) = (   0.9132160   0.0220878   1.0442300  )
        18        O      tau(  18) = (   0.0867840   1.0290103   0.3480767  )
        19        O      tau(  19) = (   0.4132160   0.5034613   0.3480767  )
        20        O      tau(  20) = (   0.5867840   0.5476368   1.0442300  )

     number of k points=    48  Marzari-Vanderbilt smearing, width (Ry)=  0.0100
                       cart. coord. in units 2pi/alat
        k(    1) = (   0.0000000   0.0000000   0.0000000), wk =   0.0055556
        k(    2) = (   0.0000000   0.0000000   0.1436465), wk =   0.0111111
        k(    3) = (   0.0000000   0.0000000   0.2872930), wk =   0.0111111
        k(    4) = (   0.0000000   0.1585643   0.0000000), wk =   0.0111111
        k(    5) = (   0.0000000   0.1585643   0.1436465), wk =   0.0222222
        k(    6) = (   0.0000000   0.1585643   0.2872930), wk =   0.0222222
        k(    7) = (   0.0000000   0.3171287   0.0000000), wk =   0.0111111
        k(    8) = (   0.0000000   0.3171287   0.1436465), wk =   0.0222222
        k(    9) = (   0.0000000   0.3171287   0.2872930), wk =   0.0222222
        k(   10) = (   0.0000000  -0.4756930   0.0000000), wk =   0.0055556
        k(   11) = (   0.0000000  -0.4756930   0.1436465), wk =   0.0111111
        k(   12) = (   0.0000000  -0.4756930   0.2872930), wk =   0.0111111
        k(   13) = (   0.1666667   0.0000000   0.0000000), wk =   0.0111111
        k(   14) = (   0.1666667   0.0000000   0.1436465), wk =   0.0222222
        k(   15) = (   0.1666667   0.0000000   0.2872930), wk =   0.0222222
        k(   16) = (   0.1666667   0.1585643   0.0000000), wk =   0.0222222
        k(   17) = (   0.1666667   0.1585643   0.1436465), wk =   0.0444444
        k(   18) = (   0.1666667   0.1585643   0.2872930), wk =   0.0444444
        k(   19) = (   0.1666667   0.3171287   0.0000000), wk =   0.0222222
        k(   20) = (   0.1666667   0.3171287   0.1436465), wk =   0.0444444
        k(   21) = (   0.1666667   0.3171287   0.2872930), wk =   0.0444444
        k(   22) = (   0.1666667  -0.4756930   0.0000000), wk =   0.0111111
        k(   23) = (   0.1666667  -0.4756930   0.1436465), wk =   0.0222222
        k(   24) = (   0.1666667  -0.4756930   0.2872930), wk =   0.0222222
        k(   25) = (   0.3333333   0.0000000   0.0000000), wk =   0.0111111
        k(   26) = (   0.3333333   0.0000000   0.1436465), wk =   0.0222222
        k(   27) = (   0.3333333   0.0000000   0.2872930), wk =   0.0222222
        k(   28) = (   0.3333333   0.1585643   0.0000000), wk =   0.0222222
        k(   29) = (   0.3333333   0.1585643   0.1436465), wk =   0.0444444
        k(   30) = (   0.3333333   0.1585643   0.2872930), wk =   0.0444444
        k(   31) = (   0.3333333   0.3171287   0.0000000), wk =   0.0222222
        k(   32) = (   0.3333333   0.3171287   0.1436465), wk =   0.0444444
        k(   33) = (   0.3333333   0.3171287   0.2872930), wk =   0.0444444
        k(   34) = (   0.3333333  -0.4756930   0.0000000), wk =   0.0111111
        k(   35) = (   0.3333333  -0.4756930   0.1436465), wk =   0.0222222
        k(   36) = (   0.3333333  -0.4756930   0.2872930), wk =   0.0222222
        k(   37) = (  -0.5000000   0.0000000   0.0000000), wk =   0.0055556
        k(   38) = (  -0.5000000   0.0000000   0.1436465), wk =   0.0111111
        k(   39) = (  -0.5000000   0.0000000   0.2872930), wk =   0.0111111
        k(   40) = (  -0.5000000   0.1585643   0.0000000), wk =   0.0111111
        k(   41) = (  -0.5000000   0.1585643   0.1436465), wk =   0.0222222
        k(   42) = (  -0.5000000   0.1585643   0.2872930), wk =   0.0222222
        k(   43) = (  -0.5000000   0.3171287   0.0000000), wk =   0.0111111
        k(   44) = (  -0.5000000   0.3171287   0.1436465), wk =   0.0222222
        k(   45) = (  -0.5000000   0.3171287   0.2872930), wk =   0.0222222
        k(   46) = (  -0.5000000  -0.4756930   0.0000000), wk =   0.0055556
        k(   47) = (  -0.5000000  -0.4756930   0.1436465), wk =   0.0111111
        k(   48) = (  -0.5000000  -0.4756930   0.2872930), wk =   0.0111111

     Dense  grid:  1031615 G-vectors     FFT dimensions: ( 120, 120, 160)

     Smooth grid:   198681 G-vectors     FFT dimensions: (  64,  72,  90)

     Estimated max dynamical RAM per process >     407.14 MB

     Estimated total dynamical RAM >      53.22 GB

     Check: negative core charge=   -0.000006
     Generating pointlists ...
     new r_m :   0.1444 (alat units)  1.5243 (a.u.) for type    1
     new r_m :   0.1444 (alat units)  1.5243 (a.u.) for type    2
     new r_m :   0.1783 (alat units)  1.8826 (a.u.) for type    3

     Initial potential from superposition of free atoms

     starting charge     173.8805, renormalised to     176.0000

     STARTING HUBBARD OCCUPATIONS:

     =================== HUBBARD OCCUPATIONS ===================
     ------------------------ ATOM    5 ------------------------
     Tr[ns(  5)] (up, down, total) =   5.00000  0.00000  5.00000
     Atomic magnetic moment for atom   5 =   5.00000
     SPIN  1
     eigenvalues:
       1.000  1.000  1.000  1.000  1.000
     eigenvectors (columns):
       1.000  0.000  0.000  0.000  0.000
       0.000  1.000  0.000  0.000  0.000
       0.000  0.000  1.000  0.000  0.000
       0.000  0.000  0.000  1.000  0.000
       0.000  0.000  0.000  0.000  1.000
     occupation matrix ns (before diag.):
       1.000  0.000  0.000  0.000  0.000
       0.000  1.000  0.000  0.000  0.000
       0.000  0.000  1.000  0.000  0.000
       0.000  0.000  0.000  1.000  0.000
       0.000  0.000  0.000  0.000  1.000
     SPIN  2
     eigenvalues:
       0.000  0.000  0.000  0.000  0.000
     eigenvectors (columns):
       1.000  0.000  0.000  0.000  0.000
       0.000  1.000  0.000  0.000  0.000
       0.000  0.000  1.000  0.000  0.000
       0.000  0.000  0.000  1.000  0.000
       0.000  0.000  0.000  0.000  1.000
     occupation matrix ns (before diag.):
       0.000  0.000  0.000  0.000  0.000
       0.000  0.000  0.000  0.000  0.000
       0.000  0.000  0.000  0.000  0.000
       0.000  0.000  0.000  0.000  0.000
       0.000  0.000  0.000  0.000  0.000
     ------------------------ ATOM    6 ------------------------
     Tr[ns(  6)] (up, down, total) =   5.00000  0.00000  5.00000
     Atomic magnetic moment for atom   6 =   5.00000
     SPIN  1
     eigenvalues:
       1.000  1.000  1.000  1.000  1.000
     eigenvectors (columns):
       1.000  0.000  0.000  0.000  0.000
       0.000  1.000  0.000  0.000  0.000
       0.000  0.000  1.000  0.000  0.000
       0.000  0.000  0.000  1.000  0.000
       0.000  0.000  0.000  0.000  1.000
     occupation matrix ns (before diag.):
       1.000  0.000  0.000  0.000  0.000
       0.000  1.000  0.000  0.000  0.000
       0.000  0.000  1.000  0.000  0.000
       0.000  0.000  0.000  1.000  0.000
       0.000  0.000  0.000  0.000  1.000
     SPIN  2
     eigenvalues:
       0.000  0.000  0.000  0.000  0.000
     eigenvectors (columns):
       1.000  0.000  0.000  0.000  0.000
       0.000  1.000  0.000  0.000  0.000
       0.000  0.000  1.000  0.000  0.000
       0.000  0.000  0.000  1.000  0.000
       0.000  0.000  0.000  0.000  1.000
     occupation matrix ns (before diag.):
       0.000  0.000  0.000  0.000  0.000
       0.000  0.000  0.000  0.000  0.000
       0.000  0.000  0.000  0.000  0.000
       0.000  0.000  0.000  0.000  0.000
       0.000  0.000  0.000  0.000  0.000
     ------------------------ ATOM    7 ------------------------
     Tr[ns(  7)] (up, down, total) =   5.00000  0.00000  5.00000
     Atomic magnetic moment for atom   7 =   5.00000
     SPIN  1
     eigenvalues:
       1.000  1.000  1.000  1.000  1.000
     eigenvectors (columns):
       1.000  0.000  0.000  0.000  0.000
       0.000  1.000  0.000  0.000  0.000
       0.000  0.000  1.000  0.000  0.000
       0.000  0.000  0.000  1.000  0.000
       0.000  0.000  0.000  0.000  1.000
     occupation matrix ns (before diag.):
       1.000  0.000  0.000  0.000  0.000
       0.000  1.000  0.000  0.000  0.000
       0.000  0.000  1.000  0.000  0.000
       0.000  0.000  0.000  1.000  0.000
       0.000  0.000  0.000  0.000  1.000
     SPIN  2
     eigenvalues:
       0.000  0.000  0.000  0.000  0.000
     eigenvectors (columns):
       1.000  0.000  0.000  0.000  0.000
       0.000  1.000  0.000  0.000  0.000
       0.000  0.000  1.000  0.000  0.000
       0.000  0.000  0.000  1.000  0.000
       0.000  0.000  0.000  0.000  1.000
     occupation matrix ns (before diag.):
       0.000  0.000  0.000  0.000  0.000
       0.000  0.000  0.000  0.000  0.000
       0.000  0.000  0.000  0.000  0.000
       0.000  0.000  0.000  0.000  0.000
       0.000  0.000  0.000  0.000  0.000
     ------------------------ ATOM    8 ------------------------
     Tr[ns(  8)] (up, down, total) =   5.00000  0.00000  5.00000
     Atomic magnetic moment for atom   8 =   5.00000
     SPIN  1
     eigenvalues:
       1.000  1.000  1.000  1.000  1.000
     eigenvectors (columns):
       1.000  0.000  0.000  0.000  0.000
       0.000  1.000  0.000  0.000  0.000
       0.000  0.000  1.000  0.000  0.000
       0.000  0.000  0.000  1.000  0.000
       0.000  0.000  0.000  0.000  1.000
     occupation matrix ns (before diag.):
       1.000  0.000  0.000  0.000  0.000
       0.000  1.000  0.000  0.000  0.000
       0.000  0.000  1.000  0.000  0.000
       0.000  0.000  0.000  1.000  0.000
       0.000  0.000  0.000  0.000  1.000
     SPIN  2
     eigenvalues:
       0.000  0.000  0.000  0.000  0.000
     eigenvectors (columns):
       1.000  0.000  0.000  0.000  0.000
       0.000  1.000  0.000  0.000  0.000
       0.000  0.000  1.000  0.000  0.000
       0.000  0.000  0.000  1.000  0.000
       0.000  0.000  0.000  0.000  1.000
     occupation matrix ns (before diag.):
       0.000  0.000  0.000  0.000  0.000
       0.000  0.000  0.000  0.000  0.000
       0.000  0.000  0.000  0.000  0.000
       0.000  0.000  0.000  0.000  0.000
       0.000  0.000  0.000  0.000  0.000

     Number of occupied Hubbard levels =   20.0000

     Atomic wfc used for Hubbard projectors are NOT orthogonalized

     Starting wfcs are  180 randomized atomic wfcs
     Checking if some PAW data can be deallocated... 

     total cpu time spent up to now is       13.9 secs

     per-process dynamical memory:   274.7 Mb

     Self-consistent Calculation

     iteration #  1     ecut=    90.00 Ry     beta= 0.70
     Davidson diagonalization with overlap
     ethr =  1.00E-02,  avg # of iterations =  2.0

     =================== HUBBARD OCCUPATIONS ===================
     ------------------------ ATOM    5 ------------------------
     Tr[ns(  5)] (up, down, total) =   4.47654  0.37688  4.85342
     Atomic magnetic moment for atom   5 =   4.09966
     SPIN  1
     eigenvalues:
       0.605  0.886  0.993  0.995  0.997
     eigenvectors (columns):
      -0.713 -0.530 -0.283  0.337 -0.129
       0.349  0.261 -0.541  0.717  0.056
       0.088 -0.290  0.574  0.447  0.615
       0.193 -0.378 -0.541 -0.411  0.598
       0.569 -0.651  0.072  0.053 -0.494
     occupation matrix ns (before diag.):
       0.766  0.112  0.008  0.031  0.121
       0.112  0.940 -0.003 -0.016 -0.059
       0.008 -0.003  0.983 -0.017 -0.041
       0.031 -0.016 -0.017  0.965 -0.070
       0.121 -0.059 -0.041 -0.070  0.823
     SPIN  2
     eigenvalues:
       0.037  0.043  0.053  0.099  0.146
     eigenvectors (columns):
       0.276 -0.172 -0.256 -0.548 -0.727
       0.393 -0.454 -0.690  0.187  0.359
      -0.762  0.160 -0.574 -0.246  0.062
      -0.325 -0.807  0.352 -0.300  0.169
       0.289  0.295  0.066 -0.717  0.557
     occupation matrix ns (before diag.):
       0.114 -0.032  0.006 -0.004 -0.020
      -0.032  0.062  0.005  0.001  0.012
       0.006  0.005  0.046  0.002  0.014
      -0.004  0.001  0.002  0.051  0.023
      -0.020  0.012  0.014  0.023  0.103
     ------------------------ ATOM    6 ------------------------
     Tr[ns(  6)] (up, down, total) =   4.47654  0.37688  4.85342
     Atomic magnetic moment for atom   6 =   4.09966
     SPIN  1
     eigenvalues:
       0.605  0.886  0.993  0.995  0.997
     eigenvectors (columns):
      -0.713  0.530 -0.283  0.337  0.129
      -0.349  0.261  0.541 -0.717  0.056
       0.088  0.290  0.574  0.447 -0.615
       0.193  0.378 -0.541 -0.411 -0.598
      -0.569 -0.651 -0.072 -0.053 -0.494
     occupation matrix ns (before diag.):
       0.766 -0.112  0.008  0.031 -0.121
      -0.112  0.940  0.003  0.016 -0.059
       0.008  0.003  0.983 -0.017  0.041
       0.031  0.016 -0.017  0.965  0.070
      -0.121 -0.059  0.041  0.070  0.823
     SPIN  2
     eigenvalues:
       0.037  0.043  0.053  0.099  0.146
     eigenvectors (columns):
       0.276  0.172 -0.256 -0.548  0.727
      -0.393 -0.454  0.690 -0.187  0.359
      -0.762 -0.160 -0.574 -0.246 -0.062
      -0.325  0.807  0.352 -0.300 -0.169
      -0.289  0.295 -0.066  0.717  0.557
     occupation matrix ns (before diag.):
       0.114  0.032  0.006 -0.004  0.020
       0.032  0.062 -0.005 -0.001  0.012
       0.006 -0.005  0.046  0.002 -0.014
      -0.004 -0.001  0.002  0.051 -0.023
       0.020  0.012 -0.014 -0.023  0.103
     ------------------------ ATOM    7 ------------------------
     Tr[ns(  7)] (up, down, total) =   4.47654  0.37688  4.85342
     Atomic magnetic moment for atom   7 =   4.09966
     SPIN  1
     eigenvalues:
       0.605  0.886  0.993  0.995  0.997
     eigenvectors (columns):
      -0.713 -0.530  0.283  0.337  0.129
       0.349  0.261  0.541  0.717 -0.056
      -0.088  0.290  0.574 -0.447  0.615
       0.193 -0.378  0.541 -0.411 -0.598
      -0.569  0.651  0.072 -0.053 -0.494
     occupation matrix ns (before diag.):
       0.766  0.112 -0.008  0.031 -0.121
       0.112  0.940  0.003 -0.016  0.059
      -0.008  0.003  0.983  0.017 -0.041
       0.031 -0.016  0.017  0.965  0.070
      -0.121  0.059 -0.041  0.070  0.823
     SPIN  2
     eigenvalues:
       0.037  0.043  0.053  0.099  0.146
     eigenvectors (columns):
      -0.276 -0.172 -0.256 -0.548  0.727
      -0.393 -0.454 -0.690  0.187 -0.359
      -0.762 -0.160  0.574  0.246  0.062
       0.325 -0.807  0.352 -0.300 -0.169
       0.289 -0.295 -0.066  0.717  0.557
     occupation matrix ns (before diag.):
       0.114 -0.032 -0.006 -0.004  0.020
      -0.032  0.062 -0.005  0.001 -0.012
      -0.006 -0.005  0.046 -0.002  0.014
      -0.004  0.001 -0.002  0.051 -0.023
       0.020 -0.012  0.014 -0.023  0.103
     ------------------------ ATOM    8 ------------------------
     Tr[ns(  8)] (up, down, total) =   4.47654  0.37688  4.85342
     Atomic magnetic moment for atom   8 =   4.09966
     SPIN  1
     eigenvalues:
       0.605  0.886  0.993  0.995  0.997
     eigenvectors (columns):
      -0.713  0.530  0.283  0.337 -0.129
      -0.349  0.261 -0.541 -0.717 -0.056
      -0.088 -0.290  0.574 -0.447 -0.615
       0.193  0.378  0.541 -0.411  0.598
       0.569  0.651 -0.072  0.053 -0.494
     occupation matrix ns (before diag.):
       0.766 -0.112 -0.008  0.031  0.121
      -0.112  0.940 -0.003  0.016  0.059
      -0.008 -0.003  0.983  0.017  0.041
       0.031  0.016  0.017  0.965 -0.070
       0.121  0.059  0.041 -0.070  0.823
     SPIN  2
     eigenvalues:
       0.037  0.043  0.053  0.099  0.146
     eigenvectors (columns):
      -0.276  0.172 -0.256 -0.548 -0.727
       0.393 -0.454  0.690 -0.187 -0.359
      -0.762  0.160  0.574  0.246 -0.062
       0.325  0.807  0.352 -0.300  0.169
      -0.289 -0.295  0.066 -0.717  0.557
     occupation matrix ns (before diag.):
       0.114  0.032 -0.006 -0.004 -0.020
       0.032  0.062  0.005 -0.001 -0.012
      -0.006  0.005  0.046 -0.002 -0.014
      -0.004 -0.001 -0.002  0.051  0.023
      -0.020 -0.012 -0.014  0.023  0.103

     Number of occupied Hubbard levels =   19.4137

     negative rho (up, down):  0.000E+00 2.090E-04

     total cpu time spent up to now is       27.9 secs

     total energy              =   -3175.69021753 Ry
     estimated scf accuracy    <      12.23329601 Ry

     total magnetization       =    16.00 Bohr mag/cell
     absolute magnetization    =    18.31 Bohr mag/cell

     iteration #  2     ecut=    90.00 Ry     beta= 0.70
     Davidson diagonalization with overlap
     ethr =  6.95E-03,  avg # of iterations =  5.3

     total cpu time spent up to now is       46.0 secs

     total energy              =   -3171.72842998 Ry
     estimated scf accuracy    <      34.55183674 Ry

     total magnetization       =    12.87 Bohr mag/cell
     absolute magnetization    =    14.79 Bohr mag/cell

     iteration #  3     ecut=    90.00 Ry     beta= 0.70
     Davidson diagonalization with overlap
     ethr =  6.95E-03,  avg # of iterations =  3.7

     negative rho (up, down):  0.000E+00 9.337E-05

     total cpu time spent up to now is       62.6 secs

     total energy              =   -3179.24794680 Ry
     estimated scf accuracy    <       2.33945084 Ry

     total magnetization       =    16.00 Bohr mag/cell
     absolute magnetization    =    16.87 Bohr mag/cell

     iteration #  4     ecut=    90.00 Ry     beta= 0.70
     Davidson diagonalization with overlap
     ethr =  1.33E-03,  avg # of iterations =  6.9

     negative rho (up, down):  0.000E+00 1.557E-04

     total cpu time spent up to now is       84.5 secs

     total energy              =   -3179.50017764 Ry
     estimated scf accuracy    <       0.96067889 Ry

     total magnetization       =    16.00 Bohr mag/cell
     absolute magnetization    =    17.16 Bohr mag/cell

     iteration #  5     ecut=    90.00 Ry     beta= 0.70
     Davidson diagonalization with overlap
     ethr =  5.46E-04,  avg # of iterations =  2.9

     negative rho (up, down):  0.000E+00 1.826E-04

     total cpu time spent up to now is      100.2 secs

     total energy              =   -3179.54886354 Ry
     estimated scf accuracy    <       0.17861044 Ry

     total magnetization       =    16.00 Bohr mag/cell
     absolute magnetization    =    16.86 Bohr mag/cell

     iteration #  6     ecut=    90.00 Ry     beta= 0.70
     Davidson diagonalization with overlap
     ethr =  1.01E-04,  avg # of iterations = 10.4

     negative rho (up, down):  0.000E+00 2.171E-04

     total cpu time spent up to now is      120.6 secs

     total energy              =   -3179.57270766 Ry
     estimated scf accuracy    <       0.02026029 Ry

     total magnetization       =    16.00 Bohr mag/cell
     absolute magnetization    =    16.76 Bohr mag/cell

     iteration #  7     ecut=    90.00 Ry     beta= 0.70
     Davidson diagonalization with overlap
     c_bands:  1 eigenvalues not converged
     c_bands:  3 eigenvalues not converged
     ethr =  1.15E-05,  avg # of iterations = 14.7

     negative rho (up, down):  0.000E+00 2.205E-04

     total cpu time spent up to now is      145.9 secs

     total energy              =   -3179.57605351 Ry
     estimated scf accuracy    <       0.01401603 Ry

     total magnetization       =    16.00 Bohr mag/cell
     absolute magnetization    =    16.81 Bohr mag/cell

     iteration #  8     ecut=    90.00 Ry     beta= 0.70
     Davidson diagonalization with overlap
     c_bands:  1 eigenvalues not converged
     ethr =  7.96E-06,  avg # of iterations = 10.4

     negative rho (up, down):  0.000E+00 2.514E-04

     total cpu time spent up to now is      167.3 secs

     total energy              =   -3179.58180990 Ry
     estimated scf accuracy    <       0.00383369 Ry

     total magnetization       =    16.00 Bohr mag/cell
     absolute magnetization    =    16.83 Bohr mag/cell

     iteration #  9     ecut=    90.00 Ry     beta= 0.70
     Davidson diagonalization with overlap
     ethr =  2.18E-06,  avg # of iterations = 12.8

     negative rho (up, down):  0.000E+00 2.458E-04

     total cpu time spent up to now is      185.7 secs

     total energy              =   -3179.58152960 Ry
     estimated scf accuracy    <       0.00156031 Ry

     total magnetization       =    16.00 Bohr mag/cell
     absolute magnetization    =    16.85 Bohr mag/cell

     iteration # 10     ecut=    90.00 Ry     beta= 0.70
     Davidson diagonalization with overlap
     ethr =  8.87E-07,  avg # of iterations = 11.8

     negative rho (up, down):  0.000E+00 2.455E-04

     total cpu time spent up to now is      205.0 secs

     total energy              =   -3179.58174234 Ry
     estimated scf accuracy    <       0.00010173 Ry

     total magnetization       =    16.00 Bohr mag/cell
     absolute magnetization    =    16.84 Bohr mag/cell

     iteration # 11     ecut=    90.00 Ry     beta= 0.70
     Davidson diagonalization with overlap
     ethr =  5.78E-08,  avg # of iterations =  8.4

     negative rho (up, down):  0.000E+00 2.450E-04

     total cpu time spent up to now is      224.7 secs

     total energy              =   -3179.58181231 Ry
     estimated scf accuracy    <       0.00000201 Ry

     total magnetization       =    16.00 Bohr mag/cell
     absolute magnetization    =    16.83 Bohr mag/cell

     iteration # 12     ecut=    90.00 Ry     beta= 0.70
     Davidson diagonalization with overlap
     ethr =  1.14E-09,  avg # of iterations =  9.3

     negative rho (up, down):  0.000E+00 2.450E-04

     total cpu time spent up to now is      244.1 secs

     total energy              =   -3179.58181452 Ry
     estimated scf accuracy    <       0.00000010 Ry

     total magnetization       =    16.00 Bohr mag/cell
     absolute magnetization    =    16.83 Bohr mag/cell

     iteration # 13     ecut=    90.00 Ry     beta= 0.70
     Davidson diagonalization with overlap
     ethr =  5.42E-11,  avg # of iterations =  8.2

     negative rho (up, down):  0.000E+00 2.450E-04

     total cpu time spent up to now is      263.4 secs

     total energy              =   -3179.58181456 Ry
     estimated scf accuracy    <       0.00000031 Ry

     total magnetization       =    16.00 Bohr mag/cell
     absolute magnetization    =    16.83 Bohr mag/cell

     iteration # 14     ecut=    90.00 Ry     beta= 0.70
     Davidson diagonalization with overlap
     ethr =  5.42E-11,  avg # of iterations =  4.4

     negative rho (up, down):  0.000E+00 2.450E-04

     Magnetic moment per site  (integrated on atomic sphere of radius R)
     atom   1 (R=0.178)  charge=  6.3512  magn=  0.0121
     atom   2 (R=0.178)  charge=  6.3512  magn=  0.0121
     atom   3 (R=0.178)  charge=  6.3512  magn=  0.0121
     atom   4 (R=0.178)  charge=  6.3512  magn=  0.0121
     atom   5 (R=0.144)  charge= 11.9112  magn=  3.3696
     atom   6 (R=0.144)  charge= 11.9112  magn=  3.3696
     atom   7 (R=0.144)  charge= 11.9112  magn=  3.3696
     atom   8 (R=0.144)  charge= 11.9112  magn=  3.3696
     atom   9 (R=0.144)  charge=  5.3636  magn=  0.0182
     atom  10 (R=0.144)  charge=  5.3636  magn=  0.0182
     atom  11 (R=0.144)  charge=  5.3636  magn=  0.0182
     atom  12 (R=0.144)  charge=  5.3636  magn=  0.0182
     atom  13 (R=0.144)  charge=  5.3636  magn=  0.0182
     atom  14 (R=0.144)  charge=  5.3636  magn=  0.0182
     atom  15 (R=0.144)  charge=  5.3636  magn=  0.0182
     atom  16 (R=0.144)  charge=  5.3636  magn=  0.0182
     atom  17 (R=0.144)  charge=  5.3848  magn= -0.0017
     atom  18 (R=0.144)  charge=  5.3848  magn= -0.0017
     atom  19 (R=0.144)  charge=  5.3848  magn= -0.0017
     atom  20 (R=0.144)  charge=  5.3848  magn= -0.0017

     total cpu time spent up to now is      280.2 secs

     End of self-consistent calculation

     =================== HUBBARD OCCUPATIONS ===================
     ------------------------ ATOM    5 ------------------------
     Tr[ns(  5)] (up, down, total) =   4.62129  0.96289  5.58418
     Atomic magnetic moment for atom   5 =   3.65839
     SPIN  1
     eigenvalues:
       0.692  0.940  0.995  0.996  0.998
     eigenvectors (columns):
       0.710  0.545  0.238 -0.336 -0.169
      -0.341 -0.254  0.466 -0.774 -0.054
      -0.083  0.272 -0.604 -0.457  0.587
      -0.191  0.360  0.594  0.280  0.635
      -0.579  0.660 -0.092  0.016 -0.470
     occupation matrix ns (before diag.):
       0.826  0.082  0.009  0.030  0.105
       0.082  0.957 -0.004 -0.015 -0.051
       0.009 -0.004  0.990 -0.009 -0.025
       0.030 -0.015 -0.009  0.978 -0.048
       0.105 -0.051 -0.025 -0.048  0.870
     SPIN  2
     eigenvalues:
       0.101  0.126  0.153  0.233  0.350
     eigenvectors (columns):
       0.234 -0.174 -0.213 -0.583 -0.728
       0.422 -0.510 -0.660  0.179  0.308
      -0.752  0.133 -0.608 -0.206  0.069
      -0.367 -0.792  0.384 -0.253  0.161
       0.258  0.253  0.048 -0.723  0.587
     occupation matrix ns (before diag.):
       0.281 -0.060  0.010 -0.010 -0.052
      -0.060  0.158  0.020  0.004  0.023
       0.010  0.020  0.127 -0.005  0.029
      -0.010  0.004 -0.005  0.139  0.044
      -0.052  0.023  0.029  0.044  0.258
     ------------------------ ATOM    6 ------------------------
     Tr[ns(  6)] (up, down, total) =   4.62129  0.96289  5.58418
     Atomic magnetic moment for atom   6 =   3.65839
     SPIN  1
     eigenvalues:
       0.692  0.940  0.995  0.996  0.998
     eigenvectors (columns):
       0.710 -0.545  0.238  0.336 -0.169
       0.341 -0.254 -0.466 -0.774  0.054
      -0.083 -0.272 -0.604  0.457  0.587
      -0.191 -0.360  0.594 -0.280  0.635
       0.579  0.660  0.092  0.016  0.470
     occupation matrix ns (before diag.):
       0.826 -0.082  0.009  0.030 -0.105
      -0.082  0.957  0.004  0.015 -0.051
       0.009  0.004  0.990 -0.009  0.025
       0.030  0.015 -0.009  0.978  0.048
      -0.105 -0.051  0.025  0.048  0.870
     SPIN  2
     eigenvalues:
       0.101  0.126  0.153  0.233  0.350
     eigenvectors (columns):
       0.234  0.174 -0.213 -0.583  0.728
      -0.422 -0.510  0.660 -0.179  0.308
      -0.752 -0.133 -0.608 -0.206 -0.069
      -0.367  0.792  0.384 -0.253 -0.161
      -0.258  0.253 -0.048  0.723  0.587
     occupation matrix ns (before diag.):
       0.281  0.060  0.010 -0.010  0.052
       0.060  0.158 -0.020 -0.004  0.023
       0.010 -0.020  0.127 -0.005 -0.029
      -0.010 -0.004 -0.005  0.139 -0.044
       0.052  0.023 -0.029 -0.044  0.258
     ------------------------ ATOM    7 ------------------------
     Tr[ns(  7)] (up, down, total) =   4.62129  0.96289  5.58418
     Atomic magnetic moment for atom   7 =   3.65839
     SPIN  1
     eigenvalues:
       0.692  0.940  0.995  0.996  0.998
     eigenvectors (columns):
       0.710 -0.545 -0.238 -0.336 -0.169
      -0.341  0.254 -0.466 -0.774 -0.054
       0.083  0.272 -0.604  0.457 -0.587
      -0.191 -0.360 -0.594  0.280  0.635
       0.579  0.660 -0.092 -0.016  0.470
     occupation matrix ns (before diag.):
       0.826  0.082 -0.009  0.030 -0.105
       0.082  0.957  0.004 -0.015  0.051
      -0.009  0.004  0.990  0.009 -0.025
       0.030 -0.015  0.009  0.978  0.048
      -0.105  0.051 -0.025  0.048  0.870
     SPIN  2
     eigenvalues:
       0.101  0.126  0.153  0.233  0.350
     eigenvectors (columns):
      -0.234 -0.174 -0.213 -0.583  0.728
      -0.422 -0.510 -0.660  0.179 -0.308
      -0.752 -0.133  0.608  0.206  0.069
       0.367 -0.792  0.384 -0.253 -0.161
       0.258 -0.253 -0.048  0.723  0.587
     occupation matrix ns (before diag.):
       0.281 -0.060 -0.010 -0.010  0.052
      -0.060  0.158 -0.020  0.004 -0.023
      -0.010 -0.020  0.127  0.005  0.029
      -0.010  0.004  0.005  0.139 -0.044
       0.052 -0.023  0.029 -0.044  0.258
     ------------------------ ATOM    8 ------------------------
     Tr[ns(  8)] (up, down, total) =   4.62129  0.96289  5.58418
     Atomic magnetic moment for atom   8 =   3.65839
     SPIN  1
     eigenvalues:
       0.692  0.940  0.995  0.996  0.998
     eigenvectors (columns):
       0.710  0.545 -0.238  0.336 -0.169
       0.341  0.254  0.466 -0.774  0.054
       0.083 -0.272 -0.604 -0.457 -0.587
      -0.191  0.360 -0.594 -0.280  0.635
      -0.579  0.660  0.092 -0.016 -0.470
     occupation matrix ns (before diag.):
       0.826 -0.082 -0.009  0.030  0.105
      -0.082  0.957 -0.004  0.015  0.051
      -0.009 -0.004  0.990  0.009  0.025
       0.030  0.015  0.009  0.978 -0.048
       0.105  0.051  0.025 -0.048  0.870
     SPIN  2
     eigenvalues:
       0.101  0.126  0.153  0.233  0.350
     eigenvectors (columns):
      -0.234  0.174 -0.213 -0.583 -0.728
       0.422 -0.510  0.660 -0.179 -0.308
      -0.752  0.133  0.608  0.206 -0.069
       0.367  0.792  0.384 -0.253  0.161
      -0.258 -0.253  0.048 -0.723  0.587
     occupation matrix ns (before diag.):
       0.281  0.060 -0.010 -0.010 -0.052
       0.060  0.158  0.020 -0.004 -0.023
      -0.010  0.020  0.127  0.005 -0.029
      -0.010 -0.004  0.005  0.139  0.044
      -0.052 -0.023 -0.029  0.044  0.258

     Number of occupied Hubbard levels =   22.3367

 ------ SPIN UP ------------


          k = 0.0000 0.0000 0.0000 ( 24815 PWs)   bands (ev):

   -69.8093 -69.8092 -69.8092 -69.8091 -38.5586 -38.5580 -38.5579 -38.5573
   -38.5316 -38.5311 -38.5280 -38.5276 -38.4571 -38.4568 -38.4561 -38.4558
   -19.4369 -19.3759 -19.3471 -19.2940  -6.9410  -6.5890  -6.5242  -6.4778
    -6.4482  -6.1320  -5.8650  -5.8125  -5.7132  -5.7056  -5.6180  -5.5457
    -3.1972  -3.1878  -3.1802  -3.1583  -2.9289  -2.8872  -2.8204  -2.6449
    -2.5968  -2.2103  -2.0355  -1.9785   5.4983   5.5725   5.7949   5.9496
     6.0614   6.1280   6.2085   6.6073   6.7619   6.8042   7.0614   7.0861
     7.1239   7.1282   7.2121   7.2979   7.5842   7.6674   7.8191   7.8602
     8.0919   8.2690   8.2922   8.3712   8.3819   8.4816   8.8599   9.0446
     9.0929   9.1535   9.2704   9.3449   9.4793   9.6729   9.6735   9.6770
     9.7449   9.8123   9.8647   9.9119  10.1730  10.1880  10.2006  10.2470
    10.3820  10.5111  10.5693  10.5948  10.9015  10.9682  11.2433  11.7892
    12.1195  13.5795  13.9885  13.9984  15.3493  15.3612  15.4213  15.4554
    15.4776  15.4942

          k = 0.0000 0.0000 0.1436 ( 24798 PWs)   bands (ev):

   -69.8093 -69.8092 -69.8092 -69.8091 -38.5585 -38.5580 -38.5579 -38.5574
   -38.5312 -38.5308 -38.5284 -38.5280 -38.4571 -38.4568 -38.4561 -38.4558
   -19.4312 -19.3818 -19.3421 -19.2991  -6.8844  -6.5710  -6.4998  -6.4924
    -6.4586  -6.1978  -5.8725  -5.7682  -5.7622  -5.7195  -5.6424  -5.5405
    -3.1929  -3.1787  -3.1584  -3.1577  -2.9588  -2.8907  -2.7333  -2.5746
    -2.5662  -2.2594  -2.1204  -2.0203   5.6359   5.7102   5.8469   6.0181
     6.0831   6.1352   6.2014   6.6291   6.7660   6.7676   7.0130   7.0167
     7.0825   7.1557   7.2566   7.2987   7.3683   7.6037   7.7537   7.8295
     7.9518   8.1101   8.1529   8.2994   8.4298   8.5863   8.9766   9.0905
     9.1159   9.1696   9.2898   9.3561   9.4042   9.6254   9.6831   9.7179
     9.7987   9.8404   9.8434  10.0970  10.1295  10.1660  10.1976  10.2664
    10.4487  10.4974  10.5505  10.6253  10.8633  10.9532  11.2887  12.0083
    12.0512  13.6069  13.8017  13.9390  15.3584  15.3716  15.4026  15.4458
    15.4665  15.4918

          k = 0.0000 0.0000 0.2873 ( 24794 PWs)   bands (ev):

   -69.8092 -69.8092 -69.8092 -69.8091 -38.5584 -38.5582 -38.5578 -38.5576
   -38.5304 -38.5299 -38.5293 -38.5289 -38.4570 -38.4569 -38.4560 -38.4559
   -19.4161 -19.3972 -19.3289 -19.3125  -6.7360  -6.5719  -6.5287  -6.4864
    -6.4336  -6.3310  -5.8748  -5.8376  -5.7285  -5.6949  -5.6681  -5.5764
    -3.1728  -3.1686  -3.1606  -3.1393  -2.9623  -2.9132  -2.5418  -2.4906
    -2.3827  -2.3758  -2.3152  -2.1663   5.8648   5.8932   6.0864   6.1531
     6.1918   6.2733   6.2934   6.5765   6.5947   6.7858   6.8455   6.8518
     6.8958   6.9152   7.1755   7.1856   7.3980   7.5863   7.6603   7.7477
     7.7594   7.9280   8.1451   8.1992   8.5713   8.8135   8.8564   9.1130
     9.1527   9.2425   9.3032   9.4436   9.4536   9.6036   9.6291   9.7197
     9.7566   9.8845   9.9501   9.9504  10.1861  10.2194  10.2656  10.3358
    10.3854  10.5067  10.5312  10.5871  10.8634  10.9164  11.5256  11.8418
    12.5976  13.2816  13.6902  13.8180  15.3856  15.3975  15.4029  15.4239
    15.4377  15.4440

          k = 0.0000 0.1586 0.0000 ( 24817 PWs)   bands (ev):

   -69.8093 -69.8092 -69.8092 -69.8091 -38.5586 -38.5580 -38.5579 -38.5574
   -38.5315 -38.5311 -38.5280 -38.5277 -38.4570 -38.4568 -38.4562 -38.4559
   -19.4302 -19.3713 -19.3523 -19.3005  -6.8844  -6.6500  -6.5726  -6.4335
    -6.3673  -6.0996  -5.9369  -5.9212  -5.7279  -5.6900  -5.6900  -5.5275
    -3.1684  -3.1510  -3.1485  -3.0580  -2.8544  -2.8429  -2.8235  -2.6393
    -2.6013  -2.2395  -2.0854  -2.0187   5.5468   5.5786   5.8730   6.0689
     6.1459   6.1840   6.2757   6.5945   6.6750   6.7997   6.9532   6.9887
     7.0817   7.1396   7.2241   7.2667   7.3467   7.5854   7.6323   7.9698
     8.0273   8.0817   8.3017   8.3256   8.3502   8.6772   8.8363   8.9261
     9.2182   9.2320   9.2575   9.2601   9.3237   9.4786   9.6259   9.6664
     9.8054   9.9629   9.9868   9.9888  10.1455  10.1551  10.3192  10.3489
    10.4003  10.5046  10.6071  10.6094  10.9512  10.9712  11.2230  11.8044
    12.1520  13.3791  13.8424  13.9468  15.3203  15.4218  15.4399  15.4528
    15.4695  15.5090

          k = 0.0000 0.1586 0.1436 ( 24795 PWs)   bands (ev):

   -69.8092 -69.8092 -69.8092 -69.8091 -38.5585 -38.5580 -38.5580 -38.5574
   -38.5312 -38.5308 -38.5284 -38.5280 -38.4570 -38.4568 -38.4561 -38.4559
   -19.4246 -19.3770 -19.3474 -19.3055  -6.8324  -6.6247  -6.5632  -6.4254
    -6.4008  -6.1626  -5.9217  -5.8794  -5.7683  -5.7170  -5.7054  -5.5379
    -3.1696  -3.1483  -3.1048  -3.0653  -2.9014  -2.8286  -2.7451  -2.5826
    -2.5615  -2.2819  -2.1603  -2.0629   5.6908   5.7134   5.9196   6.1280
     6.1521   6.1925   6.2655   6.6219   6.6536   6.7965   6.9798   7.0148
     7.0547   7.0553   7.1701   7.2957   7.3073   7.4110   7.5622   7.8326
     7.8485   8.0299   8.0983   8.2806   8.4749   8.7733   8.9377   9.0444
     9.1223   9.1712   9.2588   9.3180   9.4051   9.5344   9.5685   9.6836
     9.8844   9.9341   9.9554  10.0710  10.1486  10.2039  10.2677  10.2777
    10.4323  10.5814  10.5831  10.6287  10.9325  10.9687  11.2851  12.0140
    12.0904  13.4109  13.7525  13.7855  15.3320  15.4060  15.4437  15.4443
    15.5031  15.5084

          k = 0.0000 0.1586 0.2873 ( 24807 PWs)   bands (ev):

   -69.8092 -69.8092 -69.8092 -69.8091 -38.5583 -38.5581 -38.5578 -38.5576
   -38.5303 -38.5300 -38.5293 -38.5289 -38.4569 -38.4569 -38.4561 -38.4560
   -19.4100 -19.3918 -19.3345 -19.3185  -6.7018  -6.5831  -6.5583  -6.4746
    -6.3904  -6.2956  -5.9088  -5.8632  -5.7504  -5.7416  -5.7275  -5.6042
    -3.1370  -3.1214  -3.0875  -3.0838  -2.9205  -2.8602  -2.5511  -2.4833
    -2.4149  -2.3821  -2.3359  -2.2050   5.9574   5.9849   6.0782   6.2148
     6.2496   6.2731   6.3405   6.5486   6.5756   6.7605   6.8533   6.8653
     6.9330   6.9569   7.0849   7.1960   7.2168   7.4155   7.4721   7.6260
     7.6340   7.7846   8.1571   8.2031   8.6502   8.8762   9.0055   9.1012
     9.1722   9.1867   9.2858   9.3122   9.4979   9.5530   9.6212   9.6672
     9.8314   9.8837   9.9768  10.0085  10.2432  10.2441  10.3032  10.3138
    10.3840  10.5439  10.5471  10.5770  10.9383  10.9589  11.5656  11.8915
    12.5837  13.2459  13.5052  13.6481  15.3677  15.4078  15.4237  15.4268
    15.4684  15.4884

          k = 0.0000 0.3171 0.0000 ( 24802 PWs)   bands (ev):

   -69.8092 -69.8092 -69.8092 -69.8091 -38.5584 -38.5582 -38.5578 -38.5575
   -38.5315 -38.5312 -38.5279 -38.5277 -38.4569 -38.4566 -38.4564 -38.4561
   -19.4121 -19.3670 -19.3582 -19.3174  -6.7224  -6.7097  -6.6522  -6.3420
    -6.2325  -6.1957  -6.0482  -6.0133  -5.8577  -5.7886  -5.6470  -5.5392
    -3.0931  -3.0650  -3.0570  -2.9060  -2.8758  -2.6729  -2.6660  -2.6295
    -2.6204  -2.3037  -2.2272  -2.1330   5.5952   5.6071   6.0924   6.3166
     6.3324   6.4418   6.4650   6.5081   6.5539   6.7379   6.8143   6.8658
     7.0600   7.1211   7.1226   7.1411   7.1618   7.1888   7.5852   7.6197
     7.8198   7.8577   8.2310   8.2512   8.3946   8.7531   8.7967   8.8444
     9.1960   9.2385   9.2834   9.2886   9.3276   9.3588   9.6757   9.7707
     9.8792   9.9750  10.0104  10.0855  10.1562  10.1608  10.3822  10.4509
    10.4637  10.4796  10.5863  10.6050  11.1209  11.2200  11.2562  11.9181
    12.0981  12.8832  13.6351  13.8103  15.3469  15.4119  15.4383  15.4661
    15.5006  15.5066

          k = 0.0000 0.3171 0.1436 ( 24798 PWs)   bands (ev):

   -69.8092 -69.8092 -69.8092 -69.8091 -38.5584 -38.5581 -38.5579 -38.5576
   -38.5311 -38.5309 -38.5283 -38.5281 -38.4568 -38.4566 -38.4563 -38.4561
   -19.4070 -19.3634 -19.3623 -19.3222  -6.6868  -6.6790  -6.6328  -6.3528
    -6.3298  -6.0691  -6.0642  -6.0237  -5.8601  -5.8334  -5.6862  -5.5709
    -3.1080  -3.0688  -2.9852  -2.8949  -2.7826  -2.7774  -2.6799  -2.5913
    -2.5416  -2.3364  -2.2750  -2.1804   5.7241   5.7487   6.1114   6.3328
     6.3454   6.4292   6.4311   6.5735   6.6138   6.7761   6.7907   6.8999
     6.9467   7.0705   7.0753   7.1175   7.2002   7.2058   7.3639   7.6255
     7.6418   7.8348   7.8847   8.0621   8.6419   8.8683   8.9281   8.9843
     9.1513   9.1860   9.2286   9.3342   9.3554   9.4111   9.6970   9.7160
     9.8813   9.9880  10.0821  10.1298  10.1459  10.2442  10.2680  10.3068
    10.4408  10.5689  10.6192  10.6248  11.1533  11.2608  11.3148  12.0624
    12.0819  12.9288  13.5396  13.6290  15.3560  15.4122  15.4367  15.4634
    15.5085  15.5336

          k = 0.0000 0.3171 0.2873 ( 24823 PWs)   bands (ev):

   -69.8092 -69.8092 -69.8092 -69.8091 -38.5582 -38.5580 -38.5579 -38.5577
   -38.5303 -38.5300 -38.5292 -38.5290 -38.4568 -38.4567 -38.4563 -38.4562
   -19.3937 -19.3770 -19.3500 -19.3347  -6.6163  -6.5989  -6.5950  -6.4791
    -6.2896  -6.1920  -6.0054  -5.9329  -5.8481  -5.8425  -5.7739  -5.6805
    -3.0545  -3.0230  -2.9560  -2.9492  -2.8155  -2.7230  -2.5780  -2.4991
    -2.4702  -2.4061  -2.3905  -2.3114   6.0647   6.0653   6.1504   6.3431
     6.3559   6.4018   6.5242   6.5854   6.6710   6.7254   6.7376   6.9007
     6.9424   6.9672   6.9717   7.0409   7.0857   7.1352   7.2889   7.3619
     7.4758   7.5366   7.8325   7.8774   8.8372   8.9967   9.1053   9.1236
     9.1729   9.2115   9.2626   9.3375   9.3964   9.5148   9.6463   9.6619
     9.9062   9.9825  10.0430  10.0594  10.2139  10.2611  10.2991  10.3402
    10.3884  10.5023  10.5473  10.5522  11.2242  11.2573  11.6344  11.9233
    12.5689  13.0729  13.1637  13.3080  15.3870  15.4176  15.4284  15.4332
    15.5305  15.5565

          k = 0.0000-0.4757 0.0000 ( 24826 PWs)   bands (ev):

   -69.8092 -69.8092 -69.8092 -69.8092 -38.5583 -38.5583 -38.5576 -38.5576
   -38.5313 -38.5313 -38.5278 -38.5278 -38.4566 -38.4566 -38.4563 -38.4563
   -19.3887 -19.3887 -19.3388 -19.3388  -6.7098  -6.7098  -6.4789  -6.4789
    -6.2158  -6.2158  -6.0487  -6.0487  -5.8916  -5.8916  -5.5890  -5.5890
    -3.0124  -3.0124  -2.9966  -2.9966  -2.7179  -2.7179  -2.5900  -2.5900
    -2.4354  -2.4354  -2.2789  -2.2789   5.6133   5.6133   6.3450   6.3450
     6.3747   6.3747   6.7055   6.7055   6.7103   6.7103   6.8370   6.8370
     6.8409   6.8409   7.0904   7.0904   7.2146   7.2146   7.3235   7.3235
     7.6568   7.6568   8.2286   8.2286   8.6060   8.6060   8.7346   8.7346
     9.2760   9.2760   9.2872   9.2872   9.3509   9.3509   9.8779   9.8779
     9.9069   9.9069   9.9955   9.9955  10.1707  10.1707  10.4044  10.4044
    10.5247  10.5247  10.5270  10.5270  11.2392  11.2392  11.7485  11.7485
    12.3094  12.3094  13.6543  13.6543  15.3850  15.3851  15.4429  15.4446
    15.5387  15.5390

          k = 0.0000-0.4757 0.1436 ( 24814 PWs)   bands (ev):

   -69.8092 -69.8092 -69.8092 -69.8092 -38.5582 -38.5582 -38.5577 -38.5577
   -38.5310 -38.5310 -38.5282 -38.5282 -38.4566 -38.4566 -38.4564 -38.4564
   -19.3840 -19.3840 -19.3436 -19.3436  -6.6815  -6.6815  -6.4832  -6.4832
    -6.2045  -6.2045  -6.0130  -6.0130  -5.9399  -5.9399  -5.6325  -5.6325
    -3.0526  -3.0526  -2.8629  -2.8629  -2.7617  -2.7617  -2.5799  -2.5799
    -2.4359  -2.4359  -2.3218  -2.3218   5.7430   5.7430   6.3583   6.3583
     6.3848   6.3848   6.7023   6.7023   6.7122   6.7122   6.7976   6.7976
     6.9183   6.9183   7.0510   7.0510   7.2089   7.2089   7.2750   7.2750
     7.5235   7.5235   7.9025   7.9025   8.8490   8.8490   8.8729   8.8729
     9.2015   9.2015   9.2986   9.2986   9.3605   9.3605   9.7796   9.7796
     9.9893   9.9893  10.0871  10.0871  10.1803  10.1803  10.2855  10.2855
    10.4893  10.4893  10.6099  10.6099  11.3309  11.3309  11.7416  11.7416
    12.3930  12.3930  13.5057  13.5057  15.3927  15.3930  15.4445  15.4449
    15.5542  15.5550

          k = 0.0000-0.4757 0.2873 ( 24804 PWs)   bands (ev):

   -69.8092 -69.8092 -69.8092 -69.8092 -38.5581 -38.5581 -38.5579 -38.5579
   -38.5302 -38.5302 -38.5291 -38.5291 -38.4565 -38.4565 -38.4564 -38.4564
   -19.3716 -19.3716 -19.3562 -19.3562  -6.6081  -6.6081  -6.5256  -6.5256
    -6.1508  -6.1508  -6.0499  -6.0499  -5.9011  -5.9011  -5.7533  -5.7533
    -2.9927  -2.9927  -2.8775  -2.8775  -2.6808  -2.6808  -2.5728  -2.5728
    -2.4485  -2.4485  -2.4158  -2.4158   6.0596   6.0596   6.3008   6.3008
     6.4705   6.4705   6.6255   6.6255   6.7585   6.7585   6.8310   6.8310
     6.9127   6.9127   6.9780   6.9780   7.1348   7.1348   7.2922   7.2922
     7.3541   7.3541   7.4557   7.4557   9.0553   9.0553   9.0882   9.0882
     9.2208   9.2208   9.2817   9.2817   9.4262   9.4262   9.6837   9.6837
     9.9814   9.9814  10.0985  10.0985  10.2152  10.2152  10.3489  10.3489
    10.3890  10.3890  10.5209  10.5209  11.5589  11.5589  11.6969  11.6969
    12.6851  12.6851  13.1271  13.1271  15.4114  15.4114  15.4335  15.4335
    15.5944  15.5947

          k = 0.1667 0.0000 0.0000 ( 24778 PWs)   bands (ev):

   -69.8093 -69.8092 -69.8092 -69.8091 -38.5586 -38.5580 -38.5579 -38.5574
   -38.5315 -38.5311 -38.5280 -38.5277 -38.4570 -38.4568 -38.4562 -38.4559
   -19.4301 -19.3722 -19.3512 -19.3001  -6.8796  -6.7812  -6.5911  -6.4283
    -6.3127  -6.1378  -5.9139  -5.8181  -5.7833  -5.6885  -5.6278  -5.5547
    -3.1978  -3.1796  -3.1721  -3.0258  -2.9567  -2.7668  -2.7308  -2.6557
    -2.5911  -2.2103  -2.0665  -1.9923   5.5120   5.5679   5.9059   6.0247
     6.1233   6.1725   6.2812   6.4910   6.6674   6.8717   6.9133   6.9841
     7.0837   7.1314   7.2167   7.2948   7.5427   7.6426   7.6655   7.7567
     7.9104   8.1543   8.2757   8.3082   8.3617   8.6559   8.7099   8.9743
     9.0601   9.1202   9.1618   9.3221   9.5334   9.6265   9.7117   9.7357
     9.7713   9.8430   9.8536   9.9660  10.2225  10.2405  10.2686  10.3508
    10.3847  10.5355  10.5866  10.6747  10.9508  10.9852  11.2667  11.8337
    12.1710  13.4349  13.8537  13.9517  15.3195  15.3731  15.4484  15.4520
    15.4674  15.5245

          k = 0.1667 0.0000 0.1436 ( 24798 PWs)   bands (ev):

   -69.8092 -69.8092 -69.8092 -69.8091 -38.5585 -38.5580 -38.5580 -38.5574
   -38.5312 -38.5308 -38.5284 -38.5280 -38.4570 -38.4568 -38.4562 -38.4559
   -19.4246 -19.3776 -19.3466 -19.3051  -6.8308  -6.7467  -6.5858  -6.4575
    -6.3051  -6.1746  -5.9487  -5.8841  -5.7676  -5.6648  -5.6343  -5.5423
    -3.2510  -3.1564  -3.1187  -3.1112  -2.8735  -2.7766  -2.6548  -2.6021
    -2.5874  -2.2435  -2.1351  -2.0275   5.6494   5.6992   5.9292   6.0923
     6.1324   6.1878   6.2799   6.5183   6.7004   6.8160   6.9134   6.9954
     7.0328   7.0561   7.2466   7.2755   7.3947   7.5638   7.6287   7.7188
     7.8645   7.9278   8.0977   8.2169   8.4041   8.7146   8.8066   8.9646
     9.0908   9.2273   9.2512   9.3306   9.4150   9.6471   9.7503   9.7516
     9.7799   9.8492   9.8636  10.1423  10.1446  10.2218  10.2342  10.4297
    10.4629  10.5228  10.5570  10.6439  10.9428  10.9878  11.3363  12.0350
    12.1109  13.4589  13.7633  13.8018  15.3391  15.3808  15.4260  15.4441
    15.4645  15.5020

          k = 0.1667 0.0000 0.2873 ( 24837 PWs)   bands (ev):

   -69.8092 -69.8092 -69.8092 -69.8091 -38.5583 -38.5581 -38.5578 -38.5576
   -38.5303 -38.5300 -38.5293 -38.5289 -38.4569 -38.4569 -38.4561 -38.4560
   -19.4101 -19.3921 -19.3340 -19.3181  -6.7104  -6.6566  -6.6058  -6.5453
    -6.2807  -6.2343  -6.0267  -5.9942  -5.6698  -5.6453  -5.6405  -5.5734
    -3.2688  -3.2249  -3.0983  -3.0775  -2.7976  -2.7747  -2.5664  -2.5496
    -2.4700  -2.2945  -2.2627  -2.1412   5.8930   5.9436   6.0550   6.2102
     6.2226   6.3084   6.3714   6.4541   6.7329   6.7584   6.7813   6.7896
     6.9163   6.9909   7.0485   7.0833   7.3965   7.5469   7.5921   7.5942
     7.6537   7.7790   8.0443   8.0897   8.5348   8.7227   8.9198   8.9311
     9.1921   9.2239   9.3265   9.3378   9.5797   9.5985   9.6685   9.8041
     9.8441   9.8667   9.8980  10.0430  10.2396  10.2661  10.3055  10.3465
    10.4949  10.5032  10.5062  10.5806  10.9575  10.9844  11.6045  11.9155
    12.5976  13.2563  13.5454  13.6750  15.3815  15.4004  15.4112  15.4256
    15.4427  15.4459

          k = 0.1667 0.1586 0.0000 ( 24811 PWs)   bands (ev):

   -69.8093 -69.8092 -69.8092 -69.8091 -38.5585 -38.5581 -38.5579 -38.5574
   -38.5315 -38.5312 -38.5280 -38.5277 -38.4570 -38.4567 -38.4562 -38.4560
   -19.4241 -19.3685 -19.3553 -19.3058  -6.8272  -6.8248  -6.6542  -6.3859
    -6.2868  -6.0844  -5.9642  -5.8864  -5.7795  -5.7409  -5.6322  -5.5435
    -3.1636  -3.1608  -3.1542  -2.9444  -2.9076  -2.7322  -2.7290  -2.6635
    -2.5676  -2.2439  -2.1127  -2.0042   5.5403   5.5745   5.9211   6.1080
     6.1102   6.2498   6.4435   6.4859   6.5449   6.8214   6.8619   7.0564
     7.0939   7.1063   7.1281   7.1545   7.3117   7.5603   7.5929   7.8795
     7.9228   8.0771   8.3046   8.3221   8.3973   8.6380   8.6835   8.9919
     9.0639   9.1685   9.2382   9.2804   9.4783   9.5574   9.6058   9.7392
     9.7966   9.8840   9.9255  10.0455  10.0909  10.1385  10.2736  10.4048
    10.4062  10.5349  10.6391  10.6667  10.9776  11.0152  11.2885  11.8738
    12.1780  13.2590  13.6781  14.0110  15.3226  15.4113  15.4558  15.4627
    15.4839  15.5206

          k = 0.1667 0.1586 0.1436 ( 24806 PWs)   bands (ev):

   -69.8092 -69.8092 -69.8092 -69.8091 -38.5585 -38.5580 -38.5579 -38.5575
   -38.5312 -38.5308 -38.5283 -38.5280 -38.4570 -38.4567 -38.4562 -38.4560
   -19.4188 -19.3735 -19.3510 -19.3107  -6.7952  -6.7784  -6.6385  -6.4358
    -6.2799  -6.1137  -5.9663  -5.9339  -5.8093  -5.7025  -5.6351  -5.5472
    -3.2193  -3.1370  -3.1162  -3.0159  -2.8073  -2.7449  -2.6816  -2.6116
    -2.5506  -2.2752  -2.1707  -2.0435   5.6766   5.7041   5.9370   6.1144
     6.1729   6.2790   6.4307   6.4934   6.5872   6.8289   6.8620   6.9838
     7.0594   7.0742   7.1171   7.1854   7.3111   7.3626   7.5358   7.7423
     7.8044   7.8979   8.1643   8.2990   8.4515   8.7448   8.7834   8.9718
     9.0443   9.2386   9.2562   9.3882   9.4227   9.5541   9.5952   9.7783
     9.8654   9.8887   9.9529  10.0331  10.1633  10.1649  10.2221  10.3608
    10.4596  10.5615  10.5820  10.6690  10.9953  11.0121  11.3761  12.0537
    12.1331  13.2920  13.5736  13.8617  15.3367  15.4099  15.4467  15.4546
    15.4736  15.5111

          k = 0.1667 0.1586 0.2873 ( 24825 PWs)   bands (ev):

   -69.8092 -69.8092 -69.8092 -69.8091 -38.5583 -38.5581 -38.5578 -38.5576
   -38.5303 -38.5300 -38.5292 -38.5289 -38.4569 -38.4568 -38.4561 -38.4561
   -19.4048 -19.3874 -19.3388 -19.3233  -6.7007  -6.6855  -6.6192  -6.5532
    -6.2504  -6.1766  -6.0501  -6.0068  -5.7203  -5.6670  -5.6477  -5.6004
    -3.2286  -3.1861  -3.0714  -3.0289  -2.7500  -2.7256  -2.5916  -2.5317
    -2.4852  -2.3392  -2.2632  -2.1561   5.9105   5.9540   6.0542   6.2689
     6.3261   6.3374   6.4060   6.4416   6.6769   6.7389   6.7852   6.8509
     6.8958   6.9956   7.0239   7.0548   7.2729   7.3145   7.4689   7.5244
     7.5502   7.6950   8.1811   8.2254   8.5480   8.7117   8.9653   8.9683
     9.1486   9.2318   9.3066   9.3666   9.5548   9.5937   9.7059   9.7753
     9.8457   9.8746   9.9491  10.0028  10.1891  10.2314  10.2752  10.3181
    10.4416  10.5003  10.5260  10.6161  11.0180  11.0254  11.6626  11.9605
    12.5838  13.1898  13.4015  13.5932  15.3730  15.4087  15.4290  15.4316
    15.4617  15.4853

          k = 0.1667 0.3171 0.0000 ( 24817 PWs)   bands (ev):

   -69.8093 -69.8092 -69.8092 -69.8091 -38.5584 -38.5582 -38.5578 -38.5575
   -38.5314 -38.5312 -38.5279 -38.5278 -38.4568 -38.4565 -38.4564 -38.4561
   -19.4081 -19.3693 -19.3558 -19.3208  -6.8798  -6.7765  -6.6683  -6.3389
    -6.2100  -6.1702  -6.0258  -5.9245  -5.8119  -5.7265  -5.6827  -5.5790
    -3.0958  -3.0807  -3.0769  -2.8897  -2.8235  -2.7466  -2.6373  -2.5853
    -2.5495  -2.2681  -2.2438  -2.0632   5.5875   5.5904   6.0210   6.1834
     6.1873   6.2486   6.4846   6.5247   6.6233   6.7763   6.8895   6.9009
     6.9872   7.0576   7.1111   7.1522   7.2275   7.3334   7.5611   7.6477
     7.7725   8.0675   8.2892   8.3043   8.3735   8.5323   8.6480   8.9823
     9.1275   9.1315   9.2052   9.2815   9.4823   9.5279   9.6494   9.7052
     9.8549   9.9174   9.9654  10.0130  10.0614  10.1304  10.3937  10.4368
    10.4793  10.5559  10.5822  10.6258  10.9856  11.2223  11.2704  12.0051
    12.0545  12.8443  13.6140  13.9399  15.3601  15.4369  15.4408  15.4681
    15.4803  15.5257

          k = 0.1667 0.3171 0.1436 ( 24827 PWs)   bands (ev):

   -69.8092 -69.8092 -69.8092 -69.8091 -38.5584 -38.5581 -38.5578 -38.5576
   -38.5311 -38.5309 -38.5283 -38.5281 -38.4568 -38.4566 -38.4564 -38.4561
   -19.4032 -19.3655 -19.3601 -19.3254  -6.8429  -6.7489  -6.6445  -6.4252
    -6.2237  -6.1026  -6.0218  -5.9416  -5.8641  -5.7239  -5.6840  -5.5985
    -3.1375  -3.0705  -3.0451  -2.8742  -2.8047  -2.6956  -2.6449  -2.5777
    -2.5072  -2.3189  -2.2654  -2.1035   5.7156   5.7242   6.0277   6.1838
     6.2428   6.2958   6.5044   6.5244   6.6041   6.7967   6.8937   6.9168
     6.9771   6.9995   7.0935   7.1359   7.1769   7.2923   7.3767   7.5737
     7.6273   7.8578   8.1398   8.1947   8.5917   8.6831   8.7440   8.9833
     9.0820   9.1359   9.2300   9.3355   9.4759   9.5514   9.6286   9.6894
     9.8698   9.9300  10.0259  10.0769  10.1472  10.2053  10.2310  10.3900
    10.4405  10.5496  10.5889  10.6713  11.0419  11.2172  11.3793  11.9788
    12.1931  12.9003  13.4869  13.7820  15.3688  15.4222  15.4467  15.4629
    15.4976  15.5486

          k = 0.1667 0.3171 0.2873 ( 24821 PWs)   bands (ev):

   -69.8092 -69.8092 -69.8092 -69.8092 -38.5582 -38.5580 -38.5579 -38.5577
   -38.5303 -38.5301 -38.5292 -38.5290 -38.4567 -38.4566 -38.4563 -38.4562
   -19.3904 -19.3745 -19.3522 -19.3375  -6.7414  -6.6786  -6.6343  -6.5727
    -6.1896  -6.0827  -6.0540  -5.9995  -5.8215  -5.7191  -5.7003  -5.6737
    -3.1249  -3.0812  -3.0137  -2.9314  -2.7208  -2.6495  -2.5697  -2.5465
    -2.4610  -2.4184  -2.2957  -2.2072   5.9793   6.0342   6.0543   6.2657
     6.3416   6.3908   6.5113   6.5458   6.6063   6.7191   6.7830   6.8654
     6.9080   6.9388   6.9950   7.0278   7.1493   7.1738   7.3306   7.3474
     7.4677   7.5124   8.1043   8.1162   8.6579   8.7464   8.9751   9.0213
     9.0905   9.1756   9.2938   9.4285   9.4726   9.5676   9.6546   9.8300
     9.8788   9.9593  10.0104  10.0323  10.1237  10.2118  10.2377  10.2988
    10.4280  10.4918  10.5560  10.6262  11.1566  11.2057  11.6592  11.8854
    12.6124  13.0886  13.1265  13.4220  15.3948  15.4215  15.4339  15.4403
    15.5273  15.5548

          k = 0.1667-0.4757 0.0000 ( 24842 PWs)   bands (ev):

   -69.8093 -69.8093 -69.8092 -69.8092 -38.5583 -38.5583 -38.5576 -38.5576
   -38.5313 -38.5313 -38.5278 -38.5278 -38.4566 -38.4566 -38.4563 -38.4563
   -19.3876 -19.3876 -19.3395 -19.3395  -6.8656  -6.8656  -6.4348  -6.4348
    -6.2640  -6.2640  -5.9437  -5.9437  -5.7802  -5.7802  -5.6542  -5.6542
    -3.0347  -3.0347  -2.9719  -2.9719  -2.7839  -2.7839  -2.5459  -2.5459
    -2.4355  -2.4355  -2.1776  -2.1776   5.6024   5.6024   6.1382   6.1382
     6.2644   6.2644   6.3934   6.3934   6.7425   6.7425   6.9723   6.9723
     7.0275   7.0275   7.1431   7.1431   7.2787   7.2787   7.5382   7.5382
     7.6725   7.6725   8.2693   8.2693   8.4359   8.4359   8.7808   8.7808
     9.1385   9.1385   9.2390   9.2390   9.5276   9.5276   9.8172   9.8172
     9.8249   9.8249   9.9429   9.9429  10.1262  10.1262  10.4740  10.4740
    10.5289  10.5289  10.5684  10.5684  11.1212  11.1212  11.5996  11.5996
    12.3983  12.3983  13.7660  13.7660  15.4051  15.4052  15.4462  15.4465
    15.5349  15.5361

          k = 0.1667-0.4757 0.1436 ( 24816 PWs)   bands (ev):

   -69.8092 -69.8092 -69.8092 -69.8092 -38.5582 -38.5582 -38.5577 -38.5577
   -38.5310 -38.5310 -38.5282 -38.5282 -38.4566 -38.4566 -38.4564 -38.4564
   -19.3831 -19.3831 -19.3441 -19.3441  -6.8300  -6.8300  -6.4799  -6.4799
    -6.2246  -6.2246  -5.9415  -5.9415  -5.8076  -5.8076  -5.6732  -5.6732
    -3.0614  -3.0614  -2.9248  -2.9248  -2.7505  -2.7505  -2.5611  -2.5611
    -2.4295  -2.4295  -2.2132  -2.2132   5.7310   5.7310   6.1872   6.1872
     6.2724   6.2724   6.3933   6.3933   6.7592   6.7592   6.9103   6.9103
     7.0122   7.0122   7.1200   7.1200   7.2548   7.2548   7.4499   7.4499
     7.5952   7.5952   8.0118   8.0118   8.6539   8.6539   8.8756   8.8756
     9.0979   9.0979   9.2474   9.2474   9.5279   9.5279   9.7281   9.7281
     9.8597   9.8597  10.0642  10.0642  10.1927  10.1927  10.3577  10.3577
    10.4684  10.4684  10.6460  10.6460  11.2107  11.2107  11.5934  11.5934
    12.4891  12.4891  13.6164  13.6164  15.4091  15.4092  15.4451  15.4451
    15.5527  15.5544

          k = 0.1667-0.4757 0.2873 ( 24810 PWs)   bands (ev):

   -69.8092 -69.8092 -69.8092 -69.8092 -38.5581 -38.5581 -38.5579 -38.5579
   -38.5302 -38.5302 -38.5291 -38.5291 -38.4565 -38.4565 -38.4564 -38.4564
   -19.3711 -19.3711 -19.3562 -19.3562  -6.7316  -6.7316  -6.5978  -6.5978
    -6.1168  -6.1168  -5.9943  -5.9943  -5.8049  -5.8049  -5.7355  -5.7355
    -3.0258  -3.0258  -2.9520  -2.9520  -2.6583  -2.6583  -2.5933  -2.5933
    -2.3934  -2.3934  -2.3024  -2.3024   6.0297   6.0297   6.2016   6.2016
     6.3803   6.3803   6.4599   6.4599   6.6426   6.6426   6.8506   6.8506
     6.9164   6.9164   6.9749   6.9749   7.2172   7.2172   7.3218   7.3218
     7.6028   7.6028   7.7283   7.7283   8.8247   8.8247   8.9307   8.9307
     9.1331   9.1331   9.3336   9.3336   9.5557   9.5557   9.7074   9.7074
     9.9654   9.9654  10.0448  10.0448  10.1590  10.1590  10.2595  10.2595
    10.4867  10.4867  10.5895  10.5895  11.4229  11.4229  11.5521  11.5521
    12.7927  12.7927  13.2368  13.2368  15.4210  15.4211  15.4374  15.4374
    15.5781  15.5810

          k = 0.3333 0.0000 0.0000 ( 24860 PWs)   bands (ev):

   -69.8093 -69.8092 -69.8092 -69.8091 -38.5585 -38.5582 -38.5578 -38.5575
   -38.5314 -38.5312 -38.5279 -38.5277 -38.4569 -38.4566 -38.4564 -38.4561
   -19.4123 -19.3712 -19.3532 -19.3161  -6.9112  -6.7835  -6.7049  -6.3990
    -6.2072  -6.1563  -6.0539  -5.9025  -5.7205  -5.7187  -5.6557  -5.5800
    -3.1719  -3.1109  -3.0732  -3.0268  -2.8964  -2.7214  -2.5334  -2.5256
    -2.5251  -2.2014  -2.1631  -2.0396   5.5328   5.5554   6.0373   6.1069
     6.2818   6.3088   6.4758   6.4811   6.4930   6.8346   6.8439   7.0096
     7.0172   7.0674   7.1835   7.2139   7.3005   7.3425   7.4596   7.4880
     7.5755   7.9789   8.2310   8.2417   8.4274   8.6217   8.6266   8.9589
     9.0076   9.1133   9.1836   9.3461   9.5480   9.5780   9.6529   9.7006
     9.7034   9.8872   9.9006   9.9390  10.1716  10.3984  10.4318  10.4384
    10.4869  10.5876  10.6001  10.6064  11.1892  11.3203  11.3605  12.0238
    12.1969  13.0261  13.6303  13.8157  15.3248  15.3831  15.4677  15.4743
    15.4861  15.5072

          k = 0.3333 0.0000 0.1436 ( 24822 PWs)   bands (ev):

   -69.8092 -69.8092 -69.8092 -69.8091 -38.5584 -38.5581 -38.5579 -38.5576
   -38.5311 -38.5309 -38.5283 -38.5281 -38.4569 -38.4566 -38.4563 -38.4561
   -19.4073 -19.3703 -19.3545 -19.3208  -6.8706  -6.7554  -6.6806  -6.4546
    -6.2113  -6.1981  -6.0118  -5.9652  -5.7324  -5.7235  -5.6493  -5.5523
    -3.1812  -3.1399  -3.1071  -3.0428  -2.8022  -2.7250  -2.5385  -2.5145
    -2.4619  -2.2195  -2.1896  -2.0635   5.6563   5.6753   6.0470   6.1437
     6.3072   6.3396   6.4688   6.5014   6.5443   6.7427   6.8421   7.0195
     7.0588   7.0649   7.1305   7.1359   7.2934   7.2948   7.4214   7.4330
     7.5494   7.7792   7.9598   7.9696   8.5261   8.6811   8.7132   8.9752
     9.1040   9.2148   9.2875   9.3361   9.4504   9.5639   9.6390   9.6985
     9.7771   9.9351   9.9529  10.1495  10.1913  10.3257  10.3767  10.4221
    10.5312  10.5401  10.5492  10.6031  11.2595  11.3670  11.4355  12.1379
    12.1833  13.0501  13.5509  13.6511  15.3439  15.3868  15.4506  15.4585
    15.4910  15.4943

          k = 0.3333 0.0000 0.2873 ( 24855 PWs)   bands (ev):

   -69.8092 -69.8092 -69.8092 -69.8091 -38.5582 -38.5580 -38.5579 -38.5577
   -38.5303 -38.5300 -38.5292 -38.5290 -38.4568 -38.4567 -38.4563 -38.4562
   -19.3942 -19.3787 -19.3473 -19.3330  -6.7579  -6.6921  -6.6521  -6.5978
    -6.2107  -6.2076  -6.0602  -6.0422  -5.7017  -5.6946  -5.6383  -5.5702
    -3.2137  -3.2114  -3.0705  -3.0346  -2.7411  -2.7324  -2.5232  -2.4797
    -2.3639  -2.2628  -2.2132  -2.1331   5.8860   5.9860   6.0105   6.3283
     6.3662   6.4003   6.4245   6.5335   6.6645   6.6935   6.8252   6.8305
     6.9399   6.9561   7.0276   7.0500   7.2381   7.3063   7.3572   7.3890
     7.4264   7.5585   7.6788   7.7257   8.5723   8.6930   8.8283   8.9114
     9.2872   9.3161   9.3530   9.3950   9.5501   9.6052   9.7001   9.7893
     9.9358   9.9501   9.9849  10.1357  10.2097  10.2477  10.2965  10.3737
    10.4084  10.4353  10.5751  10.5946  11.3578  11.3788  11.7528  12.0300
    12.6078  13.1095  13.2452  13.3568  15.3826  15.3956  15.4210  15.4375
    15.4625  15.4683

          k = 0.3333 0.1586 0.0000 ( 24823 PWs)   bands (ev):

   -69.8093 -69.8092 -69.8092 -69.8091 -38.5584 -38.5582 -38.5578 -38.5575
   -38.5314 -38.5312 -38.5279 -38.5278 -38.4568 -38.4565 -38.4564 -38.4561
   -19.4083 -19.3716 -19.3529 -19.3198  -6.9695  -6.8562  -6.6556  -6.4029
    -6.2283  -6.1382  -6.0056  -5.8494  -5.7463  -5.7299  -5.6424  -5.5991
    -3.1293  -3.1165  -3.0733  -2.9792  -2.9076  -2.7373  -2.5420  -2.5142
    -2.4850  -2.1990  -2.1917  -2.0098   5.5359   5.5604   5.9545   6.0566
     6.1726   6.2094   6.4491   6.5763   6.6218   6.7488   6.8919   6.9459
     7.0055   7.0165   7.1731   7.2097   7.2980   7.4077   7.4914   7.5428
     7.7023   8.0477   8.2740   8.3006   8.3914   8.4849   8.6062   8.9067
     9.0423   9.1202   9.1910   9.3789   9.4851   9.6216   9.6582   9.6904
     9.7578   9.8661   9.9150   9.9804  10.0825  10.2515  10.3295  10.4527
    10.5180  10.5834  10.5913  10.6260  11.0760  11.2852  11.3260  12.0736
    12.1103  12.9228  13.6057  13.9566  15.3472  15.4090  15.4647  15.4844
    15.4942  15.5128

          k = 0.3333 0.1586 0.1436 ( 24835 PWs)   bands (ev):

   -69.8092 -69.8092 -69.8092 -69.8091 -38.5584 -38.5581 -38.5578 -38.5576
   -38.5311 -38.5309 -38.5283 -38.5281 -38.4568 -38.4566 -38.4564 -38.4561
   -19.4034 -19.3695 -19.3555 -19.3244  -6.9282  -6.8241  -6.6422  -6.4730
    -6.2420  -6.1532  -5.9795  -5.9041  -5.7440  -5.7075  -5.6571  -5.5794
    -3.1500  -3.1265  -3.0724  -3.0421  -2.8251  -2.7218  -2.5261  -2.4999
    -2.4449  -2.2566  -2.1811  -2.0377   5.6538   5.6806   5.9655   6.1146
     6.1971   6.2667   6.4348   6.5585   6.6358   6.7703   6.8700   6.9434
     7.0043   7.0446   7.1092   7.1491   7.2432   7.2885   7.4239   7.5448
     7.5787   7.8533   8.0461   8.1361   8.5379   8.5822   8.6835   8.9018
     9.1051   9.1846   9.2896   9.3733   9.4400   9.5693   9.6560   9.7244
     9.7478   9.9319   9.9489  10.0981  10.1804  10.2483  10.3663  10.3858
    10.4664  10.5433  10.5802  10.6210  11.1266  11.2825  11.4478  12.0499
    12.2386  12.9664  13.4891  13.8074  15.3604  15.4110  15.4528  15.4721
    15.4840  15.5162

          k = 0.3333 0.1586 0.2873 ( 24821 PWs)   bands (ev):

   -69.8092 -69.8092 -69.8092 -69.8092 -38.5582 -38.5580 -38.5579 -38.5577
   -38.5303 -38.5301 -38.5292 -38.5290 -38.4567 -38.4567 -38.4563 -38.4562
   -19.3909 -19.3759 -19.3501 -19.3363  -6.8132  -6.7414  -6.6663  -6.6257
    -6.2198  -6.1677  -6.0024  -5.9831  -5.7003  -5.6756  -5.6547  -5.6030
    -3.1829  -3.1821  -3.0485  -3.0264  -2.7779  -2.7306  -2.4921  -2.4414
    -2.3817  -2.3247  -2.1811  -2.1122   5.8616   5.9489   5.9948   6.2803
     6.3078   6.3719   6.4295   6.5194   6.6792   6.7596   6.8226   6.8497
     6.9215   6.9350   6.9793   7.0386   7.1717   7.1797   7.3032   7.3989
     7.4968   7.5757   7.9399   7.9955   8.5429   8.5970   8.8970   8.9446
     9.1186   9.2083   9.4036   9.4434   9.5207   9.6201   9.6984   9.7914
     9.8782   9.9440   9.9633  10.1223  10.1575  10.2500  10.3014  10.3564
    10.3946  10.4523  10.5552  10.5969  11.2292  11.2726  11.7422  11.9644
    12.6390  13.0941  13.1852  13.4581  15.3900  15.4116  15.4343  15.4418
    15.4760  15.4909

          k = 0.3333 0.3171 0.0000 ( 24809 PWs)   bands (ev):

   -69.8093 -69.8093 -69.8092 -69.8092 -38.5584 -38.5582 -38.5577 -38.5576
   -38.5314 -38.5313 -38.5279 -38.5278 -38.4567 -38.4565 -38.4564 -38.4562
   -19.3979 -19.3756 -19.3495 -19.3295  -7.0518  -6.9857  -6.5165  -6.4203
    -6.3145  -6.1476  -5.8657  -5.8581  -5.7483  -5.6903  -5.6638  -5.6196
    -3.0997  -3.0700  -3.0271  -2.9315  -2.9024  -2.8235  -2.5331  -2.4564
    -2.4156  -2.2993  -2.1252  -1.9938   5.5477   5.5679   5.8616   5.9339
     6.0535   6.1025   6.2990   6.3597   6.7152   6.8558   6.9577   7.0452
     7.0467   7.0918   7.1546   7.2407   7.4282   7.4353   7.5586   7.5608
     7.7146   8.1817   8.2147   8.2671   8.3188   8.4396   8.6484   8.7594
     9.1020   9.1181   9.3108   9.3914   9.3965   9.6725   9.6844   9.7417
     9.7574   9.8499   9.8910   9.9301  10.0006  10.0844  10.2817  10.3776
    10.5291  10.5403  10.5659  10.6380  11.0119  11.1772  11.2608  11.7050
    12.3019  12.7104  13.7703  14.0387  15.3955  15.4490  15.4616  15.4701
    15.4919  15.5532

          k = 0.3333 0.3171 0.1436 ( 24820 PWs)   bands (ev):

   -69.8093 -69.8092 -69.8092 -69.8092 -38.5583 -38.5582 -38.5578 -38.5576
   -38.5311 -38.5310 -38.5282 -38.5281 -38.4567 -38.4565 -38.4565 -38.4562
   -19.3934 -19.3716 -19.3538 -19.3338  -7.0089  -6.9467  -6.5622  -6.5051
    -6.2963  -6.1152  -5.8743  -5.8343  -5.7715  -5.6862  -5.6687  -5.6238
    -3.1134  -3.0703  -3.0385  -2.9600  -2.8876  -2.7497  -2.5464  -2.4374
    -2.3836  -2.3327  -2.1374  -2.0227   5.6631   5.6894   5.8954   6.0196
     6.0868   6.1268   6.3037   6.3679   6.7033   6.8718   6.9385   6.9672
     7.0370   7.0597   7.1523   7.1650   7.2472   7.3768   7.3925   7.5427
     7.6313   7.9901   8.2138   8.3254   8.3923   8.5065   8.7080   8.8308
     9.0757   9.1489   9.1990   9.3996   9.4655   9.5911   9.6731   9.7444
     9.7759   9.8516   9.9185   9.9718  10.1176  10.2068  10.3233  10.3444
    10.4822  10.5041  10.5387  10.6504  11.0586  11.2399  11.2809  11.6960
    12.4185  12.7929  13.6303  13.8824  15.4016  15.4347  15.4601  15.4705
    15.4991  15.5616

          k = 0.3333 0.3171 0.2873 ( 24818 PWs)   bands (ev):

   -69.8092 -69.8092 -69.8092 -69.8092 -38.5581 -38.5580 -38.5579 -38.5578
   -38.5302 -38.5301 -38.5291 -38.5290 -38.4566 -38.4566 -38.4564 -38.4563
   -19.3818 -19.3684 -19.3577 -19.3450  -6.8876  -6.8373  -6.7119  -6.6766
    -6.1830  -6.0773  -5.9140  -5.8879  -5.7557  -5.7067  -5.6496  -5.6244
    -3.1248  -3.1097  -3.0159  -2.9663  -2.8234  -2.7356  -2.5404  -2.4756
    -2.3342  -2.2969  -2.1603  -2.0988   5.8616   5.9211   5.9795   6.1481
     6.2498   6.2868   6.3906   6.4113   6.5832   6.7005   6.7744   6.8355
     6.9140   6.9675   6.9941   7.0471   7.1904   7.2681   7.2773   7.4132
     7.6368   7.7546   8.2293   8.2580   8.5359   8.5674   8.8189   8.8734
     9.0327   9.1496   9.3055   9.4112   9.5211   9.5589   9.7754   9.7903
     9.8440   9.8566   9.9037  10.0522  10.1580  10.1663  10.2438  10.2872
    10.4544  10.4720  10.5531  10.6177  11.1612  11.2181  11.4989  11.6479
    12.7817  13.0660  13.2593  13.4955  15.4172  15.4293  15.4441  15.4527
    15.5174  15.5331

          k = 0.3333-0.4757 0.0000 ( 24852 PWs)   bands (ev):

   -69.8093 -69.8093 -69.8092 -69.8092 -38.5583 -38.5583 -38.5576 -38.5576
   -38.5313 -38.5313 -38.5278 -38.5278 -38.4566 -38.4566 -38.4563 -38.4563
   -19.3853 -19.3853 -19.3408 -19.3408  -7.0638  -7.0638  -6.3958  -6.3958
    -6.3175  -6.3175  -5.8118  -5.8118  -5.7157  -5.7157  -5.6508  -5.6508
    -3.0598  -3.0598  -2.9290  -2.9290  -2.9247  -2.9247  -2.4352  -2.4352
    -2.3973  -2.3973  -2.0408  -2.0408   5.5638   5.5638   5.8369   5.8369
     6.0966   6.0966   6.1648   6.1648   6.8503   6.8503   6.9817   6.9817
     7.2169   7.2169   7.2423   7.2423   7.3738   7.3738   7.5108   7.5108
     8.1274   8.1274   8.1364   8.1364   8.3270   8.3270   8.6799   8.6799
     9.1951   9.1951   9.2304   9.2304   9.6014   9.6014   9.7401   9.7401
     9.7627   9.7627   9.9506   9.9506   9.9800   9.9800  10.3657  10.3657
    10.5237  10.5237  10.5430  10.5430  11.0357  11.0357  11.3862  11.3862
    12.5040  12.5040  13.9622  13.9622  15.4465  15.4466  15.4485  15.4487
    15.5116  15.5123

          k = 0.3333-0.4757 0.1436 ( 24830 PWs)   bands (ev):

   -69.8093 -69.8093 -69.8092 -69.8092 -38.5582 -38.5582 -38.5577 -38.5577
   -38.5310 -38.5310 -38.5282 -38.5282 -38.4566 -38.4566 -38.4563 -38.4563
   -19.3811 -19.3811 -19.3451 -19.3451  -7.0211  -7.0211  -6.5239  -6.5239
    -6.2234  -6.2234  -5.8110  -5.8110  -5.7106  -5.7106  -5.6713  -5.6713
    -3.0642  -3.0642  -2.9822  -2.9822  -2.8371  -2.8371  -2.4902  -2.4902
    -2.3479  -2.3479  -2.0664  -2.0664   5.6857   5.6857   5.9047   5.9047
     6.1191   6.1191   6.1775   6.1775   6.8647   6.8647   6.9759   6.9759
     7.0190   7.0190   7.2290   7.2290   7.2904   7.2904   7.4035   7.4035
     8.0780   8.0780   8.1864   8.1864   8.3670   8.3670   8.8298   8.8298
     8.9975   8.9975   9.3288   9.3288   9.5280   9.5280   9.7230   9.7230
     9.7794   9.7794   9.9535   9.9535  10.1608  10.1608  10.3409  10.3409
    10.4591  10.4591  10.5849  10.5849  11.0952  11.0952  11.3760  11.3760
    12.6112  12.6112  13.8079  13.8079  15.4366  15.4367  15.4568  15.4569
    15.5288  15.5299

          k = 0.3333-0.4757 0.2873 ( 24830 PWs)   bands (ev):

   -69.8092 -69.8092 -69.8092 -69.8092 -38.5581 -38.5581 -38.5579 -38.5579
   -38.5302 -38.5302 -38.5291 -38.5291 -38.4565 -38.4565 -38.4564 -38.4564
   -19.3701 -19.3701 -19.3563 -19.3563  -6.8994  -6.8994  -6.7196  -6.7196
    -6.0746  -6.0746  -5.9098  -5.9098  -5.6907  -5.6907  -5.6774  -5.6774
    -3.0507  -3.0507  -3.0176  -3.0176  -2.7295  -2.7295  -2.6046  -2.6046
    -2.2470  -2.2470  -2.1404  -2.1404   5.9255   5.9255   5.9942   5.9942
     6.2655   6.2655   6.3053   6.3053   6.6105   6.6105   6.7766   6.7766
     6.9590   6.9590   7.0330   7.0330   7.2435   7.2435   7.3091   7.3091
     8.0777   8.0777   8.1318   8.1318   8.5499   8.5499   8.7606   8.7606
     9.0900   9.0900   9.2775   9.2775   9.6145   9.6145   9.6841   9.6841
     9.9014   9.9014   9.9618   9.9618  10.1461  10.1461  10.2061  10.2061
    10.5210  10.5210  10.5779  10.5779  11.2384  11.2384  11.3365  11.3365
    12.9480  12.9480  13.4152  13.4152  15.4373  15.4374  15.4499  15.4501
    15.5502  15.5518

          k =-0.5000 0.0000 0.0000 ( 24876 PWs)   bands (ev):

   -69.8092 -69.8092 -69.8092 -69.8092 -38.5583 -38.5583 -38.5576 -38.5576
   -38.5313 -38.5313 -38.5278 -38.5278 -38.4566 -38.4566 -38.4563 -38.4563
   -19.3898 -19.3898 -19.3364 -19.3364  -6.9114  -6.9114  -6.4462  -6.4462
    -6.3115  -6.3115  -5.9240  -5.9240  -5.7532  -5.7532  -5.6165  -5.6165
    -3.1086  -3.1086  -3.0396  -3.0396  -2.8121  -2.8121  -2.4371  -2.4371
    -2.3256  -2.3256  -2.1327  -2.1327   5.5439   5.5439   6.0033   6.0033
     6.4736   6.4736   6.5473   6.5473   6.7838   6.7838   6.9255   6.9255
     6.9700   6.9700   7.0189   7.0189   7.1953   7.1953   7.3374   7.3374
     7.6490   7.6490   8.2122   8.2122   8.5012   8.5012   8.7809   8.7809
     9.1854   9.1854   9.2458   9.2458   9.4129   9.4129   9.6922   9.6922
     9.8170   9.8170  10.0067  10.0067  10.2075  10.2075  10.4744  10.4744
    10.5682  10.5682  10.5966  10.5966  11.3376  11.3376  11.9033  11.9033
    12.4759  12.4759  13.6415  13.6415  15.3593  15.3613  15.4893  15.4894
    15.5311  15.5336

          k =-0.5000 0.0000 0.1436 ( 24812 PWs)   bands (ev):

   -69.8092 -69.8092 -69.8092 -69.8092 -38.5582 -38.5582 -38.5577 -38.5577
   -38.5310 -38.5310 -38.5282 -38.5282 -38.4566 -38.4566 -38.4564 -38.4564
   -19.3854 -19.3854 -19.3408 -19.3408  -6.8721  -6.8721  -6.4907  -6.4907
    -6.3030  -6.3030  -5.8929  -5.8929  -5.8145  -5.8145  -5.5937  -5.5937
    -3.1606  -3.1606  -2.9755  -2.9755  -2.8505  -2.8505  -2.4090  -2.4090
    -2.3034  -2.3034  -2.1548  -2.1548   5.6522   5.6522   6.0802   6.0802
     6.3989   6.3989   6.5653   6.5653   6.8172   6.8172   6.9254   6.9254
     6.9377   6.9377   7.0514   7.0514   7.2270   7.2270   7.2425   7.2425
     7.5126   7.5126   7.8839   7.8839   8.6414   8.6414   8.8060   8.8060
     9.2454   9.2454   9.3345   9.3345   9.4346   9.4346   9.6169   9.6169
     9.8640   9.8640  10.1678  10.1678  10.2056  10.2056  10.4273  10.4273
    10.5001  10.5001  10.5848  10.5848  11.4666  11.4666  11.9001  11.9001
    12.5257  12.5257  13.5138  13.5138  15.3677  15.3677  15.4676  15.4683
    15.5307  15.5311

          k =-0.5000 0.0000 0.2873 ( 24842 PWs)   bands (ev):

   -69.8092 -69.8092 -69.8092 -69.8092 -38.5581 -38.5581 -38.5579 -38.5579
   -38.5302 -38.5302 -38.5291 -38.5291 -38.4565 -38.4565 -38.4564 -38.4564
   -19.3753 -19.3753 -19.3511 -19.3511  -6.7647  -6.7647  -6.6152  -6.6152
    -6.2760  -6.2760  -5.8889  -5.8889  -5.8286  -5.8286  -5.6020  -5.6020
    -3.1728  -3.1728  -2.9607  -2.9607  -2.8934  -2.8934  -2.3394  -2.3394
    -2.2776  -2.2776  -2.2051  -2.2051   5.8924   5.8924   6.1422   6.1422
     6.4243   6.4243   6.6025   6.6025   6.7815   6.7815   6.8618   6.8618
     6.9877   6.9877   7.0347   7.0347   7.1529   7.1529   7.2462   7.2462
     7.3051   7.3051   7.4449   7.4449   8.6144   8.6144   8.9589   8.9589
     9.2772   9.2772   9.4575   9.4575   9.5560   9.5560   9.7598   9.7598
     9.9325   9.9325  10.1234  10.1234  10.1752  10.1752  10.3267  10.3267
    10.4277  10.4277  10.5572  10.5572  11.7344  11.7344  11.8697  11.8697
    12.7383  12.7383  13.1799  13.1799  15.3871  15.3873  15.4305  15.4306
    15.5116  15.5118

          k =-0.5000 0.1586 0.0000 ( 24844 PWs)   bands (ev):

   -69.8093 -69.8093 -69.8092 -69.8092 -38.5583 -38.5583 -38.5576 -38.5576
   -38.5313 -38.5313 -38.5278 -38.5278 -38.4566 -38.4566 -38.4563 -38.4563
   -19.3885 -19.3885 -19.3376 -19.3376  -6.9807  -6.9807  -6.4071  -6.4071
    -6.3454  -6.3454  -5.8564  -5.8564  -5.6963  -5.6963  -5.6782  -5.6782
    -3.0612  -3.0612  -3.0389  -3.0389  -2.8688  -2.8688  -2.4148  -2.4148
    -2.3476  -2.3476  -2.0852  -2.0852   5.5438   5.5438   5.9283   5.9283
     6.2919   6.2919   6.3645   6.3645   6.8560   6.8560   7.0138   7.0138
     7.0286   7.0286   7.1400   7.1400   7.2557   7.2557   7.3830   7.3830
     7.7503   7.7503   8.2468   8.2468   8.3784   8.3784   8.7898   8.7898
     9.1643   9.1643   9.2394   9.2394   9.3990   9.3990   9.7409   9.7409
     9.7847   9.7847  10.0182  10.0182  10.1874  10.1874  10.4136  10.4136
    10.5568  10.5568  10.6184  10.6184  11.2352  11.2352  11.6982  11.6982
    12.4890  12.4890  13.7735  13.7735  15.3834  15.3835  15.4807  15.4815
    15.5427  15.5434

          k =-0.5000 0.1586 0.1436 ( 24818 PWs)   bands (ev):

   -69.8092 -69.8092 -69.8092 -69.8092 -38.5582 -38.5582 -38.5577 -38.5577
   -38.5310 -38.5310 -38.5282 -38.5282 -38.4566 -38.4566 -38.4564 -38.4564
   -19.3842 -19.3842 -19.3419 -19.3419  -6.9398  -6.9398  -6.4966  -6.4966
    -6.2957  -6.2957  -5.8406  -5.8406  -5.7511  -5.7511  -5.6436  -5.6436
    -3.1192  -3.1192  -2.9802  -2.9802  -2.8843  -2.8843  -2.3964  -2.3964
    -2.3339  -2.3339  -2.1029  -2.1029   5.6502   5.6502   6.0073   6.0073
     6.2679   6.2679   6.3962   6.3962   6.8235   6.8235   6.9552   6.9552
     7.0552   7.0552   7.1186   7.1186   7.2223   7.2223   7.3406   7.3406
     7.6311   7.6311   7.9709   7.9709   8.5527   8.5527   8.8025   8.8025
     9.2034   9.2034   9.3165   9.3165   9.4557   9.4557   9.5604   9.5604
     9.8847   9.8847  10.1667  10.1667  10.2034  10.2034  10.3913  10.3913
    10.5051  10.5051  10.5898  10.5898  11.3345  11.3345  11.6945  11.6945
    12.5638  12.5638  13.6376  13.6376  15.3907  15.3910  15.4653  15.4656
    15.5366  15.5372

          k =-0.5000 0.1586 0.2873 ( 24840 PWs)   bands (ev):

   -69.8092 -69.8092 -69.8092 -69.8092 -38.5581 -38.5581 -38.5579 -38.5579
   -38.5302 -38.5302 -38.5291 -38.5291 -38.4565 -38.4565 -38.4564 -38.4564
   -19.3742 -19.3742 -19.3522 -19.3522  -6.8257  -6.8257  -6.6589  -6.6589
    -6.2346  -6.2346  -5.8441  -5.8441  -5.7667  -5.7667  -5.6443  -5.6443
    -3.1269  -3.1269  -2.9917  -2.9917  -2.8914  -2.8914  -2.3646  -2.3646
    -2.2999  -2.2999  -2.1416  -2.1416   5.8756   5.8756   6.0864   6.0864
     6.3633   6.3633   6.4783   6.4783   6.7080   6.7080   6.8525   6.8525
     6.9558   6.9558   7.0041   7.0041   7.2190   7.2190   7.2865   7.2865
     7.5424   7.5424   7.6691   7.6691   8.5716   8.5716   8.9553   8.9553
     9.1662   9.1662   9.4193   9.4193   9.5584   9.5584   9.7098   9.7098
     9.9083   9.9083  10.1018  10.1018  10.2336  10.2336  10.3264  10.3264
    10.4580  10.4580  10.5420  10.5420  11.5489  11.5489  11.6654  11.6654
    12.8334  12.8334  13.2831  13.2831  15.4056  15.4057  15.4370  15.4371
    15.5108  15.5111

          k =-0.5000 0.3171 0.0000 ( 24816 PWs)   bands (ev):

   -69.8093 -69.8093 -69.8092 -69.8092 -38.5583 -38.5583 -38.5576 -38.5576
   -38.5313 -38.5313 -38.5278 -38.5278 -38.4566 -38.4566 -38.4563 -38.4563
   -19.3857 -19.3857 -19.3401 -19.3401  -7.0925  -7.0925  -6.4163  -6.4163
    -6.3037  -6.3037  -5.8246  -5.8246  -5.7142  -5.7142  -5.6110  -5.6110
    -3.0469  -3.0469  -2.9650  -2.9650  -2.9595  -2.9595  -2.4007  -2.4007
    -2.3556  -2.3556  -2.0140  -2.0140   5.5400   5.5400   5.7815   5.7815
     6.0945   6.0945   6.1669   6.1669   6.8794   6.8794   7.0010   7.0010
     7.2519   7.2519   7.2946   7.2946   7.3127   7.3127   7.4181   7.4181
     8.1138   8.1138   8.1395   8.1395   8.3142   8.3142   8.6814   8.6814
     9.2152   9.2152   9.2253   9.2253   9.5285   9.5285   9.7340   9.7340
     9.7804   9.7804  10.0011  10.0011  10.0390  10.0390  10.3153  10.3153
    10.5056  10.5056  10.5450  10.5450  11.0868  11.0868  11.4135  11.4135
    12.5199  12.5199  13.9718  13.9718  15.4304  15.4311  15.4612  15.4613
    15.5406  15.5467

          k =-0.5000 0.3171 0.1436 ( 24822 PWs)   bands (ev):

   -69.8093 -69.8093 -69.8092 -69.8092 -38.5582 -38.5582 -38.5577 -38.5577
   -38.5310 -38.5310 -38.5282 -38.5282 -38.4566 -38.4566 -38.4564 -38.4564
   -19.3816 -19.3816 -19.3443 -19.3443  -7.0488  -7.0488  -6.5359  -6.5359
    -6.2346  -6.2346  -5.7957  -5.7957  -5.7072  -5.7072  -5.6435  -5.6435
    -3.0590  -3.0590  -2.9975  -2.9975  -2.9062  -2.9062  -2.4399  -2.4399
    -2.3102  -2.3102  -2.0324  -2.0324   5.6478   5.6478   5.8629   5.8629
     6.1094   6.1094   6.1907   6.1907   6.8699   6.8699   6.9950   6.9950
     7.0981   7.0981   7.1769   7.1769   7.2707   7.2707   7.3775   7.3775
     8.0567   8.0567   8.1199   8.1199   8.3789   8.3789   8.8062   8.8062
     9.0757   9.0757   9.3298   9.3298   9.4851   9.4851   9.6321   9.6321
     9.8520   9.8520  10.0316  10.0316  10.1433  10.1433  10.3549  10.3549
    10.4826  10.4826  10.5283  10.5283  11.1389  11.1389  11.4027  11.4027
    12.6259  12.6259  13.8210  13.8210  15.4305  15.4306  15.4594  15.4595
    15.5382  15.5402

          k =-0.5000 0.3171 0.2873 ( 24848 PWs)   bands (ev):

   -69.8092 -69.8092 -69.8092 -69.8092 -38.5581 -38.5581 -38.5579 -38.5579
   -38.5302 -38.5302 -38.5291 -38.5291 -38.4565 -38.4565 -38.4564 -38.4564
   -19.3714 -19.3714 -19.3547 -19.3547  -6.9240  -6.9240  -6.7370  -6.7370
    -6.1339  -6.1339  -5.8154  -5.8154  -5.6907  -5.6907  -5.6705  -5.6705
    -3.0545  -3.0545  -3.0241  -3.0241  -2.8632  -2.8632  -2.5007  -2.5007
    -2.2257  -2.2257  -2.0820  -2.0820   5.8517   5.8517   5.9746   5.9746
     6.2541   6.2541   6.3283   6.3283   6.6388   6.6388   6.7772   6.7772
     6.9767   6.9767   7.0365   7.0365   7.2334   7.2334   7.3018   7.3018
     7.9747   7.9747   8.0978   8.0978   8.5247   8.5247   8.8265   8.8265
     9.1033   9.1033   9.2950   9.2950   9.5908   9.5908   9.6805   9.6805
     9.8508   9.8508  10.0146  10.0146  10.1741  10.1741  10.3047  10.3047
    10.4849  10.4849  10.5248  10.5248  11.2741  11.2741  11.3691  11.3691
    12.9606  12.9606  13.4326  13.4326  15.4340  15.4341  15.4497  15.4498
    15.5235  15.5238

          k =-0.5000-0.4757 0.0000 ( 24820 PWs)   bands (ev):

   -69.8093 -69.8093 -69.8092 -69.8092 -38.5583 -38.5583 -38.5576 -38.5576
   -38.5313 -38.5313 -38.5278 -38.5278 -38.4566 -38.4566 -38.4563 -38.4563
   -19.3842 -19.3842 -19.3415 -19.3415  -7.1401  -7.1401  -6.4494  -6.4494
    -6.2194  -6.2194  -5.9294  -5.9294  -5.6416  -5.6416  -5.5797  -5.5797
    -3.0584  -3.0584  -3.0035  -3.0035  -2.9022  -2.9022  -2.4346  -2.4346
    -2.3199  -2.3199  -1.9871  -1.9871   5.5360   5.5360   5.7084   5.7084
     6.0253   6.0253   6.0986   6.0986   6.8930   6.8930   6.9799   6.9799
     7.3048   7.3048   7.3577   7.3577   7.4145   7.4145   7.4351   7.4351
     7.9378   7.9378   8.3279   8.3279   8.4273   8.4273   8.5681   8.5681
     9.2204   9.2204   9.3719   9.3719   9.6817   9.6817   9.6880   9.6880
     9.7750   9.7750   9.7921   9.7921   9.9508   9.9508  10.2763  10.2763
    10.4418  10.4418  10.4833  10.4833  11.0568  11.0568  11.3286  11.3286
    12.5370  12.5370  14.0516  14.0516  15.4508  15.4510  15.4639  15.4643
    15.5045  15.5047

          k =-0.5000-0.4757 0.1436 ( 24828 PWs)   bands (ev):

   -69.8093 -69.8093 -69.8092 -69.8092 -38.5582 -38.5582 -38.5577 -38.5577
   -38.5310 -38.5310 -38.5282 -38.5282 -38.4566 -38.4566 -38.4563 -38.4563
   -19.3802 -19.3802 -19.3457 -19.3457  -7.0950  -7.0950  -6.5616  -6.5616
    -6.1703  -6.1703  -5.8799  -5.8799  -5.6385  -5.6385  -5.6180  -5.6180
    -3.0554  -3.0554  -3.0138  -3.0138  -2.8689  -2.8689  -2.4902  -2.4902
    -2.2744  -2.2744  -2.0075  -2.0075   5.6531   5.6531   5.7834   5.7834
     6.0490   6.0490   6.1225   6.1225   6.9154   6.9154   6.9563   6.9563
     7.1218   7.1218   7.1606   7.1606   7.3538   7.3538   7.3968   7.3968
     8.0650   8.0650   8.3449   8.3449   8.3638   8.3638   8.7985   8.7985
     9.0255   9.0255   9.3642   9.3642   9.5973   9.5973   9.6775   9.6775
     9.7757   9.7757   9.9208   9.9208   9.9852   9.9852  10.3402  10.3402
    10.4280  10.4280  10.5054  10.5054  11.0910  11.0910  11.3115  11.3115
    12.6529  12.6529  13.8939  13.8939  15.4452  15.4454  15.4674  15.4678
    15.5218  15.5236

          k =-0.5000-0.4757 0.2873 ( 24852 PWs)   bands (ev):

   -69.8092 -69.8092 -69.8092 -69.8092 -38.5581 -38.5581 -38.5579 -38.5579
   -38.5302 -38.5302 -38.5291 -38.5291 -38.4565 -38.4565 -38.4564 -38.4564
   -19.3696 -19.3696 -19.3564 -19.3564  -6.9657  -6.9657  -6.7724  -6.7724
    -6.0420  -6.0420  -5.8998  -5.8998  -5.6512  -5.6512  -5.6387  -5.6387
    -3.0465  -3.0465  -3.0320  -3.0320  -2.7697  -2.7697  -2.6246  -2.6246
    -2.1726  -2.1726  -2.0720  -2.0720   5.8632   5.8632   5.8983   5.8983
     6.2015   6.2015   6.2882   6.2882   6.5967   6.5967   6.7538   6.7538
     6.9837   6.9837   7.0483   7.0483   7.2589   7.2589   7.2962   7.2962
     8.2177   8.2177   8.2919   8.2919   8.5091   8.5091   8.7663   8.7663
     9.0985   9.0985   9.2372   9.2372   9.6563   9.6563   9.6687   9.6687
     9.7962   9.7962   9.9052   9.9052  10.0848  10.0848  10.2193  10.2193
    10.5090  10.5090  10.5244  10.5244  11.1907  11.1907  11.2683  11.2683
    13.0083  13.0083  13.4913  13.4913  15.4437  15.4442  15.4577  15.4583
    15.5403  15.5416

 ------ SPIN DOWN ----------


          k = 0.0000 0.0000 0.0000 ( 24815 PWs)   bands (ev):

   -65.3715 -65.3714 -65.3714 -65.3713 -34.4792 -34.4787 -34.4786 -34.4781
   -34.2534 -34.2529 -34.2471 -34.2467 -33.8299 -33.8295 -33.8288 -33.8284
   -19.4251 -19.3650 -19.3228 -19.2837  -6.8461  -6.4884  -6.4312  -6.4102
    -6.3868  -5.9920  -5.8350  -5.6578  -5.6348  -5.5837  -5.5572  -5.4968
    -3.1441  -3.1336  -3.1234  -3.1156  -2.9168  -2.8699  -2.8046  -2.5697
    -2.5363  -2.1950  -2.0020  -1.9610   5.8808   6.4949   6.5918   7.1298
     7.2568   7.4117   7.5254   7.6629   7.7311   7.7794   7.8907   7.9053
     8.1415   8.2405   8.2997   8.4356   8.4383   8.5819   8.5947   8.5993
     8.8971   8.9255   8.9693   9.1679   9.3635   9.4553   9.5201   9.5597
     9.7313   9.7843   9.8350   9.8379  10.0190  10.2573  10.2712  10.4176
    13.6687  13.6803  13.8289  14.0154  14.1288  14.2193  14.2968  14.4398
    14.5498  14.5548  14.5781  14.8019  14.9191  15.0957  15.1704  15.2848
    15.3559  15.3750  15.4370  15.4414  15.5142  15.5157  15.5464  15.5822
    15.6178  15.6245

          k = 0.0000 0.0000 0.1436 ( 24798 PWs)   bands (ev):

   -65.3715 -65.3714 -65.3714 -65.3713 -34.4792 -34.4788 -34.4785 -34.4781
   -34.2528 -34.2523 -34.2477 -34.2473 -33.8298 -33.8295 -33.8288 -33.8284
   -19.4194 -19.3708 -19.3191 -19.2874  -6.7930  -6.4564  -6.4243  -6.4137
    -6.4086  -6.0623  -5.8350  -5.6646  -5.6534  -5.6003  -5.5971  -5.4421
    -3.1421  -3.1381  -3.1185  -3.1065  -2.9331  -2.8707  -2.7142  -2.5088
    -2.5036  -2.2373  -2.0928  -1.9920   5.9672   6.4761   6.6769   7.2506
     7.3134   7.4315   7.5308   7.5850   7.6861   7.7878   7.8692   7.8902
     8.1350   8.1832   8.2078   8.4601   8.4662   8.5241   8.5302   8.6061
     8.7424   8.9168   9.0792   9.1767   9.3950   9.4662   9.5334   9.6337
     9.7498   9.7620   9.8122   9.9072  10.0359  10.2179  10.2199  10.2235
    13.7247  13.7815  13.8369  14.0347  14.1630  14.2364  14.4130  14.4220
    14.4929  14.5496  14.6086  14.7898  14.9508  15.0800  15.1181  15.2708
    15.2949  15.4022  15.4238  15.4525  15.5101  15.5119  15.5217  15.5643
    15.5814  15.6216

          k = 0.0000 0.0000 0.2873 ( 24794 PWs)   bands (ev):

   -65.3715 -65.3714 -65.3714 -65.3713 -34.4790 -34.4789 -34.4784 -34.4782
   -34.2512 -34.2508 -34.2493 -34.2489 -33.8297 -33.8296 -33.8286 -33.8285
   -19.4045 -19.3860 -19.3094 -19.2973  -6.6563  -6.5058  -6.4116  -6.4063
    -6.3639  -6.2187  -5.8198  -5.7606  -5.6644  -5.6371  -5.5122  -5.4427
    -3.1384  -3.1379  -3.1164  -3.1009  -2.9237  -2.8857  -2.5167  -2.4392
    -2.3376  -2.3260  -2.2885  -2.1249   6.1756   6.3772   6.9178   7.2589
     7.4236   7.4436   7.5937   7.5977   7.7476   7.8099   7.8226   7.8443
     7.8549   8.0524   8.2831   8.3072   8.3507   8.4138   8.4919   8.5056
     8.9092   8.9501   9.1166   9.3564   9.4384   9.4553   9.5176   9.7559
     9.7573   9.7945   9.7973   9.8169   9.9639  10.0755  10.0992  10.1356
    13.8218  13.8485  14.0136  14.1227  14.1829  14.2644  14.3073  14.3202
    14.5823  14.6594  14.6822  14.6857  15.0355  15.0362  15.0532  15.1473
    15.3648  15.4239  15.4368  15.4443  15.4779  15.4848  15.5243  15.5256
    15.6060  15.6145

          k = 0.0000 0.1586 0.0000 ( 24817 PWs)   bands (ev):

   -65.3715 -65.3714 -65.3714 -65.3713 -34.4792 -34.4787 -34.4786 -34.4781
   -34.2534 -34.2530 -34.2471 -34.2468 -33.8298 -33.8294 -33.8289 -33.8285
   -19.4184 -19.3590 -19.3299 -19.2885  -6.7923  -6.5429  -6.5139  -6.3626
    -6.2897  -5.9654  -5.8691  -5.8168  -5.6474  -5.6335  -5.5884  -5.4241
    -3.1136  -3.1083  -3.0892  -3.0311  -2.8264  -2.8240  -2.8042  -2.5728
    -2.5442  -2.2205  -2.0525  -1.9990   5.9675   6.5477   6.5680   7.2040
     7.3726   7.4077   7.5380   7.6122   7.6636   7.6888   7.8297   7.9266
     8.0953   8.1379   8.1497   8.3238   8.4915   8.5604   8.6190   8.6473
     8.8826   8.9591   8.9915   9.2500   9.3851   9.5006   9.5336   9.5520
     9.5782   9.6468   9.8341   9.8933   9.9864  10.0211  10.2935  10.3599
    13.7413  13.7549  13.9387  14.0900  14.1998  14.3058  14.3401  14.4898
    14.5181  14.5394  14.5916  14.7620  14.9069  15.0484  15.1387  15.2569
    15.3605  15.3727  15.4591  15.4716  15.4998  15.5173  15.5396  15.5640
    15.5861  15.6434

          k = 0.0000 0.1586 0.1436 ( 24795 PWs)   bands (ev):

   -65.3715 -65.3714 -65.3714 -65.3713 -34.4791 -34.4787 -34.4786 -34.4782
   -34.2528 -34.2524 -34.2477 -34.2473 -33.8298 -33.8294 -33.8288 -33.8285
   -19.4128 -19.3647 -19.3260 -19.2925  -6.7440  -6.5218  -6.5006  -6.3614
    -6.3206  -6.0333  -5.8631  -5.7771  -5.6594  -5.6502  -5.6257  -5.4223
    -3.1208  -3.1148  -3.0410  -3.0393  -2.8686  -2.8065  -2.7240  -2.5175
    -2.5091  -2.2584  -2.1319  -2.0343   6.0510   6.5301   6.6432   7.2818
     7.4215   7.4502   7.4565   7.5440   7.6617   7.6890   7.8890   7.9229
     7.9677   8.1604   8.2374   8.4027   8.4093   8.5051   8.5572   8.5734
     8.7021   8.9491   9.1797   9.2422   9.3717   9.4930   9.5176   9.5980
     9.6567   9.6661   9.8598   9.8800   9.9217  10.0080  10.2436  10.2451
    13.8014  13.8438  13.9463  14.1030  14.2364  14.3340  14.4628  14.4726
    14.5056  14.5221  14.5724  14.7617  14.9273  15.0363  15.0886  15.2454
    15.3233  15.3788  15.4604  15.4725  15.5056  15.5120  15.5406  15.5534
    15.6171  15.6193

          k = 0.0000 0.1586 0.2873 ( 24807 PWs)   bands (ev):

   -65.3715 -65.3714 -65.3714 -65.3713 -34.4790 -34.4788 -34.4784 -34.4783
   -34.2512 -34.2508 -34.2493 -34.2489 -33.8297 -33.8295 -33.8287 -33.8286
   -19.3981 -19.3797 -19.3157 -19.3029  -6.6257  -6.5188  -6.4647  -6.3894
    -6.3167  -6.1852  -5.8372  -5.7850  -5.6801  -5.6764  -5.5811  -5.4734
    -3.0927  -3.0915  -3.0610  -3.0326  -2.8820  -2.8303  -2.5261  -2.4381
    -2.3621  -2.3474  -2.3067  -2.1638   6.2507   6.4397   6.8553   7.1563
     7.4058   7.4631   7.5710   7.6749   7.6896   7.7027   7.7988   7.9082
     7.9283   8.0807   8.2408   8.3320   8.3485   8.3706   8.4793   8.5835
     8.7315   8.9047   9.2112   9.3673   9.3794   9.4635   9.5026   9.5855
     9.7217   9.7727   9.7987   9.8531   9.9609   9.9823  10.0576  10.1156
    13.9178  13.9561  14.0558  14.1679  14.2370  14.3402  14.3771  14.3986
    14.5297  14.6492  14.6546  14.6827  15.0002  15.0147  15.0389  15.1960
    15.3488  15.4069  15.4396  15.4754  15.4878  15.5094  15.5316  15.5438
    15.5996  15.6082

          k = 0.0000 0.3171 0.0000 ( 24802 PWs)   bands (ev):

   -65.3715 -65.3714 -65.3714 -65.3713 -34.4791 -34.4787 -34.4785 -34.4782
   -34.2533 -34.2530 -34.2470 -34.2468 -33.8296 -33.8292 -33.8291 -33.8287
   -19.4001 -19.3490 -19.3430 -19.3022  -6.6365  -6.6202  -6.5798  -6.2796
    -6.1772  -6.1067  -5.9508  -5.8990  -5.7857  -5.6694  -5.5677  -5.4175
    -3.0537  -3.0114  -3.0099  -2.8805  -2.8470  -2.6531  -2.6278  -2.5826
    -2.5762  -2.2756  -2.1942  -2.1079   6.1767   6.5028   6.6927   7.2465
     7.4021   7.4526   7.5707   7.5789   7.6258   7.6695   7.7092   7.8573
     8.0092   8.0484   8.0648   8.0725   8.5664   8.5925   8.7118   8.7993
     8.8153   8.8827   8.9558   9.0894   9.1880   9.3724   9.5054   9.5182
     9.5257   9.6402   9.7971   9.8273   9.8622  10.0604  10.2014  10.3264
    13.8895  13.9456  14.1564  14.2735  14.2879  14.3103  14.4169  14.4273
    14.5738  14.6315  14.6765  14.7649  14.8801  14.9882  15.0873  15.1872
    15.3702  15.3931  15.4692  15.4701  15.4863  15.4868  15.5307  15.5724
    15.6453  15.6571

          k = 0.0000 0.3171 0.1436 ( 24798 PWs)   bands (ev):

   -65.3715 -65.3714 -65.3714 -65.3713 -34.4790 -34.4787 -34.4786 -34.4783
   -34.2527 -34.2524 -34.2476 -34.2474 -33.8296 -33.8292 -33.8290 -33.8287
   -19.3947 -19.3485 -19.3446 -19.3067  -6.6056  -6.5937  -6.5643  -6.2879
    -6.2643  -5.9967  -5.9550  -5.9103  -5.7851  -5.7142  -5.6033  -5.4489
    -3.0694  -3.0298  -2.9282  -2.8660  -2.7511  -2.7344  -2.6566  -2.5466
    -2.5042  -2.3081  -2.2452  -2.1497   6.2491   6.5599   6.6667   7.1499
     7.3805   7.5315   7.5456   7.5647   7.6020   7.7018   7.8298   7.8625
     7.9945   8.0943   8.1032   8.1660   8.5178   8.5338   8.5901   8.5953
     8.7695   8.8445   9.0212   9.1845   9.2069   9.3439   9.5416   9.5465
     9.5744   9.6106   9.7861   9.8324   9.8927  10.0268  10.1444  10.2659
    13.9483  14.0095  14.1625  14.3008  14.3018  14.3506  14.4457  14.5419
    14.5802  14.6079  14.6165  14.7975  14.8502  14.9794  15.0464  15.1815
    15.3691  15.3842  15.4651  15.4717  15.4960  15.5003  15.5560  15.5681
    15.6163  15.6376

          k = 0.0000 0.3171 0.2873 ( 24823 PWs)   bands (ev):

   -65.3715 -65.3714 -65.3714 -65.3714 -34.4789 -34.4787 -34.4785 -34.4784
   -34.2511 -34.2509 -34.2492 -34.2490 -33.8295 -33.8293 -33.8289 -33.8288
   -19.3805 -19.3628 -19.3329 -19.3185  -6.5494  -6.5375  -6.5195  -6.4123
    -6.2065  -6.0868  -5.9169  -5.8406  -5.7579  -5.7203  -5.6865  -5.5592
    -3.0124  -2.9885  -2.9177  -2.9025  -2.7736  -2.6888  -2.5507  -2.4549
    -2.4392  -2.3778  -2.3621  -2.2708   6.4176   6.5769   6.7163   6.9342
     7.4080   7.4665   7.5690   7.5774   7.7005   7.8175   7.9011   7.9565
     7.9842   8.0905   8.1640   8.3003   8.3272   8.3575   8.5363   8.5405
     8.6548   8.7893   8.9415   8.9913   9.3994   9.4783   9.5393   9.5808
     9.6500   9.6927   9.7364   9.8253   9.9633   9.9698  10.0287  10.1158
    14.0852  14.1638  14.1737  14.3186  14.3295  14.4135  14.4355  14.4984
    14.5483  14.6138  14.6520  14.6952  14.9300  14.9600  15.1037  15.2958
    15.3041  15.4162  15.4265  15.4924  15.5041  15.5243  15.5348  15.5759
    15.5946  15.5988

          k = 0.0000-0.4757 0.0000 ( 24826 PWs)   bands (ev):

   -65.3715 -65.3715 -65.3714 -65.3714 -34.4789 -34.4789 -34.4784 -34.4784
   -34.2532 -34.2532 -34.2469 -34.2469 -33.8293 -33.8293 -33.8289 -33.8289
   -19.3747 -19.3747 -19.3220 -19.3220  -6.6300  -6.6300  -6.3970  -6.3970
    -6.1723  -6.1723  -5.9504  -5.9504  -5.7723  -5.7723  -5.4825  -5.4825
    -2.9650  -2.9650  -2.9592  -2.9592  -2.6809  -2.6809  -2.5683  -2.5683
    -2.3995  -2.3995  -2.2470  -2.2470   6.3810   6.3810   6.9231   6.9231
     7.4546   7.4546   7.6345   7.6345   7.6494   7.6494   7.8227   7.8227
     7.8976   7.8976   8.0772   8.0772   8.6669   8.6669   8.7065   8.7065
     8.8381   8.8381   8.9494   8.9494   9.0355   9.0355   9.5151   9.5151
     9.6394   9.6394   9.7508   9.7508   9.9990   9.9990  10.2562  10.2562
    14.0674  14.0674  14.2000  14.2000  14.3227  14.3227  14.4746  14.4746
    14.5574  14.5574  14.7656  14.7656  15.0776  15.0776  15.1809  15.1811
    15.2229  15.2229  15.4545  15.4545  15.4558  15.4559  15.5978  15.5985
    15.6063  15.6153

          k = 0.0000-0.4757 0.1436 ( 24814 PWs)   bands (ev):

   -65.3714 -65.3714 -65.3714 -65.3714 -34.4788 -34.4788 -34.4784 -34.4784
   -34.2526 -34.2526 -34.2475 -34.2475 -33.8293 -33.8293 -33.8290 -33.8290
   -19.3698 -19.3698 -19.3271 -19.3271  -6.6062  -6.6062  -6.4133  -6.4133
    -6.1446  -6.1446  -5.9116  -5.9116  -5.8245  -5.8245  -5.5251  -5.5251
    -3.0126  -3.0126  -2.8161  -2.8161  -2.7224  -2.7224  -2.5575  -2.5575
    -2.4053  -2.4053  -2.2881  -2.2881   6.4369   6.4369   6.8684   6.8684
     7.4472   7.4472   7.5464   7.5464   7.7438   7.7438   7.9225   7.9225
     7.9645   7.9645   8.0823   8.0823   8.6008   8.6008   8.6477   8.6477
     8.6936   8.6936   8.8546   8.8546   9.2330   9.2330   9.5288   9.5288
     9.6586   9.6586   9.7382   9.7382   9.9956   9.9956  10.2009  10.2009
    14.1154  14.1154  14.2362  14.2362  14.3398  14.3398  14.5439  14.5439
    14.5571  14.5571  14.7253  14.7253  15.0566  15.0566  15.1829  15.1830
    15.2243  15.2245  15.4524  15.4527  15.4680  15.4687  15.5974  15.5995
    15.6028  15.6101

          k = 0.0000-0.4757 0.2873 ( 24804 PWs)   bands (ev):

   -65.3714 -65.3714 -65.3714 -65.3714 -34.4787 -34.4787 -34.4785 -34.4785
   -34.2510 -34.2510 -34.2491 -34.2491 -33.8292 -33.8292 -33.8291 -33.8291
   -19.3566 -19.3566 -19.3403 -19.3403  -6.5434  -6.5434  -6.4676  -6.4676
    -6.0625  -6.0625  -5.9450  -5.9450  -5.7952  -5.7952  -5.6458  -5.6458
    -2.9515  -2.9515  -2.8342  -2.8342  -2.6355  -2.6355  -2.5435  -2.5435
    -2.4235  -2.4235  -2.3841  -2.3841   6.5729   6.5729   6.7321   6.7321
     7.4659   7.4659   7.4968   7.4968   7.8892   7.8892   7.9994   7.9994
     8.0694   8.0694   8.2089   8.2089   8.3063   8.3063   8.4851   8.4851
     8.6600   8.6600   8.7344   8.7344   9.4759   9.4759   9.6023   9.6023
     9.6462   9.6462   9.6936   9.6936   9.9981   9.9981  10.0781  10.0781
    14.2310  14.2310  14.3039  14.3039  14.3874  14.3874  14.5015  14.5015
    14.5550  14.5550  14.6458  14.6458  15.1777  15.1778  15.1940  15.1940
    15.2490  15.2492  15.4084  15.4085  15.4997  15.4999  15.5649  15.5652
    15.6182  15.6187

          k = 0.1667 0.0000 0.0000 ( 24778 PWs)   bands (ev):

   -65.3715 -65.3714 -65.3714 -65.3713 -34.4792 -34.4787 -34.4786 -34.4781
   -34.2534 -34.2530 -34.2471 -34.2468 -33.8298 -33.8294 -33.8289 -33.8285
   -19.4183 -19.3595 -19.3287 -19.2881  -6.7881  -6.6801  -6.5042  -6.3892
    -6.2356  -6.0202  -5.8290  -5.7223  -5.7149  -5.5486  -5.5304  -5.4947
    -3.1449  -3.1368  -3.1331  -2.9799  -2.9415  -2.7380  -2.7029  -2.5940
    -2.5447  -2.1899  -2.0357  -1.9677   5.9191   6.5096   6.5384   7.1784
     7.2174   7.4437   7.5061   7.6872   7.7857   7.8125   7.9055   7.9426
     7.9701   7.9866   8.1155   8.2808   8.3484   8.4160   8.7535   8.8602
     8.8705   9.0213   9.0845   9.2086   9.2768   9.3519   9.4410   9.6752
     9.6904   9.7547   9.7655   9.8792   9.9880  10.1830  10.2128  10.3368
    13.7238  13.7510  13.8995  14.0801  14.2196  14.2921  14.3409  14.5217
    14.5226  14.5601  14.5801  14.7467  14.9156  14.9967  15.1454  15.2275
    15.3599  15.3880  15.4145  15.5035  15.5232  15.5271  15.5677  15.5873
    15.6046  15.6060

          k = 0.1667 0.0000 0.1436 ( 24798 PWs)   bands (ev):

   -65.3715 -65.3714 -65.3714 -65.3713 -34.4791 -34.4787 -34.4786 -34.4782
   -34.2528 -34.2524 -34.2477 -34.2473 -33.8298 -33.8294 -33.8288 -33.8285
   -19.4127 -19.3650 -19.3250 -19.2921  -6.7429  -6.6483  -6.5064  -6.4055
    -6.2253  -6.0692  -5.8641  -5.7978  -5.6879  -5.5383  -5.5351  -5.4581
    -3.1974  -3.1307  -3.0798  -3.0682  -2.8416  -2.7512  -2.6265  -2.5438
    -2.5402  -2.2163  -2.1082  -1.9963   6.0024   6.5098   6.5843   7.1920
     7.3007   7.4666   7.5181   7.5645   7.7679   7.8403   7.8829   7.9159
     8.0000   8.0455   8.1034   8.2982   8.3345   8.4419   8.5973   8.6914
     8.9116   8.9746   9.0868   9.1879   9.3291   9.4624   9.4923   9.5831
     9.6710   9.7717   9.7970   9.8996   9.9440  10.1393  10.1872  10.3045
    13.7761  13.8383  13.9144  14.0954  14.2587  14.3174  14.4582  14.5086
    14.5139  14.5522  14.5557  14.7224  14.9442  14.9883  15.1052  15.2215
    15.3475  15.3600  15.4274  15.4991  15.5016  15.5328  15.5575  15.5750
    15.5996  15.6271

          k = 0.1667 0.0000 0.2873 ( 24837 PWs)   bands (ev):

   -65.3715 -65.3714 -65.3714 -65.3713 -34.4790 -34.4788 -34.4784 -34.4783
   -34.2512 -34.2508 -34.2493 -34.2489 -33.8297 -33.8295 -33.8287 -33.8286
   -19.3980 -19.3798 -19.3150 -19.3024  -6.6354  -6.5636  -6.5405  -6.4642
    -6.1906  -6.1361  -5.9491  -5.9207  -5.5996  -5.5527  -5.5035  -5.4575
    -3.2219  -3.1902  -3.0657  -3.0410  -2.7660  -2.7479  -2.5178  -2.5104
    -2.4350  -2.2695  -2.2202  -2.1007   6.2031   6.4019   6.7900   7.0648
     7.4355   7.4701   7.5788   7.5959   7.7656   7.7909   7.8452   7.8740
     7.9501   7.9653   8.2435   8.2692   8.3980   8.4453   8.4507   8.4966
     8.9158   9.0020   9.0679   9.1497   9.3296   9.3632   9.5708   9.5923
     9.6933   9.7333   9.8001   9.8694  10.0615  10.0869  10.1331  10.2145
    13.8754  13.9060  14.0767  14.1631  14.2633  14.3312  14.3861  14.4297
    14.5307  14.6150  14.6533  14.6880  14.9763  14.9879  15.0578  15.1990
    15.3698  15.3867  15.4527  15.4739  15.4796  15.4959  15.5417  15.5596
    15.5962  15.6045

          k = 0.1667 0.1586 0.0000 ( 24811 PWs)   bands (ev):

   -65.3715 -65.3714 -65.3714 -65.3713 -34.4791 -34.4786 -34.4786 -34.4781
   -34.2534 -34.2530 -34.2471 -34.2468 -33.8297 -33.8293 -33.8289 -33.8285
   -19.4124 -19.3543 -19.3347 -19.2922  -6.7358  -6.7323  -6.5686  -6.3290
    -6.2303  -5.9663  -5.8718  -5.8166  -5.6834  -5.6544  -5.5253  -5.4336
    -3.1310  -3.1152  -3.1095  -2.9043  -2.8861  -2.6998  -2.6853  -2.6248
    -2.5222  -2.2185  -2.0827  -1.9791   5.9940   6.4980   6.5913   7.1923
     7.3162   7.4196   7.5172   7.6385   7.6519   7.7757   7.7847   7.9307
     7.9318   7.9879   8.1013   8.1838   8.4711   8.5159   8.7291   8.7739
     8.8804   8.9555   9.1186   9.2170   9.2382   9.3829   9.5223   9.5886
     9.6608   9.7069   9.7073   9.8116  10.0155  10.0795  10.2315  10.2911
    13.7093  13.8872  13.9767  14.1453  14.2148  14.2978  14.3623  14.4253
    14.6112  14.6206  14.6274  14.7370  14.9000  14.9809  15.1347  15.2033
    15.3823  15.4054  15.4190  15.5097  15.5118  15.5382  15.5495  15.5726
    15.6056  15.6171

          k = 0.1667 0.1586 0.1436 ( 24806 PWs)   bands (ev):

   -65.3715 -65.3714 -65.3714 -65.3713 -34.4791 -34.4787 -34.4786 -34.4782
   -34.2528 -34.2524 -34.2477 -34.2474 -33.8297 -33.8294 -33.8289 -33.8286
   -19.4069 -19.3597 -19.3309 -19.2964  -6.6996  -6.6968  -6.5587  -6.3700
    -6.2195  -6.0042  -5.8891  -5.8587  -5.6877  -5.6218  -5.5311  -5.4339
    -3.1700  -3.1098  -3.0780  -2.9754  -2.7767  -2.7163  -2.6374  -2.5772
    -2.5041  -2.2458  -2.1423  -2.0131   6.0752   6.5534   6.5774   7.2066
     7.3469   7.4506   7.4963   7.5274   7.7083   7.7552   7.8317   7.9034
     7.9722   8.0252   8.0943   8.2343   8.4008   8.5066   8.6224   8.6835
     8.8240   9.0478   9.0810   9.1258   9.3125   9.4585   9.4722   9.5677
     9.6250   9.6792   9.7935   9.8775   9.9942  10.0294  10.1679  10.2779
    13.7929  13.9381  13.9934  14.1576  14.2626  14.3335  14.4266  14.4421
    14.5530  14.6209  14.6512  14.7147  14.9195  14.9769  15.0960  15.1969
    15.3753  15.3824  15.4285  15.4985  15.5059  15.5379  15.5451  15.5741
    15.6082  15.6359

          k = 0.1667 0.1586 0.2873 ( 24825 PWs)   bands (ev):

   -65.3715 -65.3714 -65.3714 -65.3714 -34.4790 -34.4788 -34.4785 -34.4783
   -34.2512 -34.2508 -34.2492 -34.2489 -33.8296 -33.8295 -33.8288 -33.8287
   -19.3923 -19.3742 -19.3204 -19.3072  -6.6175  -6.6100  -6.5496  -6.4742
    -6.1711  -6.0697  -5.9804  -5.9306  -5.6034  -5.5819  -5.5413  -5.4799
    -3.1816  -3.1496  -3.0387  -2.9914  -2.7214  -2.6974  -2.5463  -2.4947
    -2.4531  -2.3126  -2.2227  -2.1167   6.2698   6.4607   6.7575   7.0253
     7.4085   7.4738   7.5460   7.6241   7.7047   7.7556   7.7745   7.8894
     7.9620   8.0200   8.2026   8.2670   8.3628   8.4404   8.4835   8.5612
     8.8257   8.9670   9.0264   9.1861   9.2730   9.3842   9.5194   9.5984
     9.6261   9.7067   9.8289   9.8901   9.9882  10.0492  10.0776  10.2048
    13.9521  13.9964  14.0947  14.2193  14.2594  14.3875  14.4309  14.4381
    14.4669  14.5963  14.6651  14.7279  14.9637  14.9770  15.0927  15.2523
    15.3467  15.4026  15.4436  15.4819  15.4924  15.5022  15.5453  15.5775
    15.5819  15.6031

          k = 0.1667 0.3171 0.0000 ( 24817 PWs)   bands (ev):

   -65.3715 -65.3714 -65.3714 -65.3713 -34.4790 -34.4788 -34.4785 -34.4782
   -34.2533 -34.2531 -34.2470 -34.2468 -33.8296 -33.8292 -33.8291 -33.8287
   -19.3964 -19.3526 -19.3389 -19.3040  -6.7891  -6.6900  -6.5853  -6.2802
    -6.1768  -6.0879  -5.9545  -5.7881  -5.7292  -5.6355  -5.5556  -5.4560
    -3.0636  -3.0410  -3.0352  -2.8630  -2.7902  -2.6996  -2.6008  -2.5664
    -2.5109  -2.2351  -2.2144  -2.0353   6.1739   6.4540   6.7317   7.2267
     7.2699   7.3821   7.5025   7.5421   7.6168   7.6412   7.7542   7.8846
     7.9317   7.9411   8.1305   8.1362   8.5113   8.5840   8.7031   8.7881
     8.8084   9.0073   9.0127   9.0622   9.1371   9.2579   9.3255   9.5589
     9.5765   9.7425   9.8061   9.8647   9.8995  10.0982  10.1594  10.2214
    13.7821  14.0828  14.1527  14.1674  14.2656  14.3157  14.3851  14.4719
    14.5998  14.6306  14.7167  14.8382  14.8900  14.9574  15.1157  15.1608
    15.3586  15.4223  15.4357  15.4650  15.4935  15.5102  15.5326  15.5962
    15.6321  15.6412

          k = 0.1667 0.3171 0.1436 ( 24827 PWs)   bands (ev):

   -65.3715 -65.3714 -65.3714 -65.3713 -34.4790 -34.4787 -34.4786 -34.4783
   -34.2527 -34.2525 -34.2476 -34.2474 -33.8295 -33.8292 -33.8291 -33.8287
   -19.3910 -19.3490 -19.3435 -19.3086  -6.7552  -6.6666  -6.5680  -6.3617
    -6.1727  -6.0265  -5.9627  -5.8058  -5.7663  -5.6254  -5.5684  -5.4769
    -3.0949  -3.0326  -3.0120  -2.8413  -2.7622  -2.6615  -2.6117  -2.5550
    -2.4708  -2.2885  -2.2334  -2.0725   6.2470   6.5109   6.6995   7.1253
     7.2912   7.4156   7.5179   7.5385   7.6767   7.6920   7.7449   7.8909
     7.9553   7.9944   8.1035   8.1902   8.4259   8.5102   8.5787   8.7207
     8.8317   8.9013   9.0519   9.1276   9.1750   9.2592   9.3322   9.5701
     9.5937   9.7055   9.8135   9.8792   9.8963  10.0802  10.0873  10.2237
    13.8646  14.1234  14.1765  14.2078  14.3005  14.3317  14.4586  14.4897
    14.6142  14.6301  14.6640  14.7857  14.9077  14.9557  15.0889  15.1517
    15.3540  15.4244  15.4348  15.4653  15.4860  15.5288  15.5447  15.5905
    15.6039  15.6390

          k = 0.1667 0.3171 0.2873 ( 24821 PWs)   bands (ev):

   -65.3715 -65.3714 -65.3714 -65.3714 -34.4789 -34.4787 -34.4786 -34.4784
   -34.2511 -34.2509 -34.2492 -34.2490 -33.8294 -33.8293 -33.8290 -33.8288
   -19.3769 -19.3594 -19.3354 -19.3207  -6.6615  -6.6061  -6.5676  -6.5037
    -6.1106  -6.0027  -5.9778  -5.9164  -5.6962  -5.6076  -5.5945  -5.5576
    -3.0797  -3.0408  -2.9770  -2.8888  -2.6934  -2.6200  -2.5387  -2.5193
    -2.4274  -2.3907  -2.2583  -2.1704   6.4204   6.5909   6.6720   6.8919
     7.3942   7.4784   7.5285   7.5862   7.6879   7.7227   7.8251   7.8791
     7.9769   8.0257   8.1159   8.2190   8.3265   8.4067   8.5261   8.6786
     8.7168   8.8523   8.9273   8.9767   9.2831   9.3808   9.4915   9.5309
     9.6058   9.6728   9.7753   9.8519   9.9535  10.0092  10.0757  10.1693
    14.0584  14.1797  14.2186  14.2783  14.3140  14.4079  14.4587  14.5326
    14.5490  14.5979  14.6356  14.6771  14.9361  14.9405  15.2136  15.2178
    15.3330  15.4049  15.4396  15.4553  15.4834  15.5386  15.5563  15.5704
    15.6035  15.6193

          k = 0.1667-0.4757 0.0000 ( 24842 PWs)   bands (ev):

   -65.3714 -65.3714 -65.3713 -65.3713 -34.4789 -34.4789 -34.4784 -34.4784
   -34.2532 -34.2532 -34.2469 -34.2469 -33.8293 -33.8293 -33.8289 -33.8289
   -19.3744 -19.3744 -19.3211 -19.3211  -6.7771  -6.7771  -6.3562  -6.3562
    -6.2232  -6.2232  -5.8628  -5.8628  -5.6471  -5.6471  -5.5431  -5.5431
    -2.9936  -2.9936  -2.9402  -2.9402  -2.7494  -2.7494  -2.5194  -2.5194
    -2.4035  -2.4035  -2.1455  -2.1455   6.3506   6.3506   6.9469   6.9469
     7.3561   7.3561   7.4123   7.4123   7.6848   7.6848   7.8304   7.8304
     8.0441   8.0441   8.0570   8.0570   8.5769   8.5769   8.7390   8.7390
     8.7553   8.7553   8.9445   8.9445   9.1494   9.1494   9.4433   9.4433
     9.6964   9.6964   9.8353   9.8353   9.9743   9.9743  10.1918  10.1918
    13.9352  13.9352  14.2777  14.2777  14.3151  14.3151  14.4735  14.4735
    14.5719  14.5719  14.7997  14.7997  15.0082  15.0083  15.1138  15.1139
    15.3012  15.3014  15.4630  15.4631  15.4761  15.4765  15.5628  15.5633
    15.6358  15.6408

          k = 0.1667-0.4757 0.1436 ( 24816 PWs)   bands (ev):

   -65.3714 -65.3714 -65.3714 -65.3714 -34.4788 -34.4788 -34.4784 -34.4784
   -34.2526 -34.2526 -34.2475 -34.2475 -33.8293 -33.8293 -33.8290 -33.8290
   -19.3693 -19.3693 -19.3262 -19.3262  -6.7454  -6.7454  -6.4154  -6.4154
    -6.1631  -6.1631  -5.8665  -5.8665  -5.6717  -5.6717  -5.5623  -5.5623
    -3.0208  -3.0208  -2.8871  -2.8871  -2.7204  -2.7204  -2.5307  -2.5307
    -2.4016  -2.4016  -2.1799  -2.1799   6.4109   6.4109   6.8857   6.8857
     7.3473   7.3473   7.4871   7.4871   7.6999   7.6999   7.8592   7.8592
     8.0112   8.0112   8.1472   8.1472   8.4233   8.4233   8.6201   8.6201
     8.7762   8.7762   8.9920   8.9920   9.2156   9.2156   9.4401   9.4401
     9.6718   9.6718   9.8258   9.8258   9.9622   9.9622  10.1744  10.1744
    14.0023  14.0023  14.2985  14.2985  14.3513  14.3513  14.5392  14.5392
    14.5653  14.5653  14.7502  14.7502  14.9719  14.9720  15.1108  15.1109
    15.3061  15.3061  15.4610  15.4611  15.4947  15.4947  15.5654  15.5660
    15.6220  15.6229

          k = 0.1667-0.4757 0.2873 ( 24810 PWs)   bands (ev):

   -65.3714 -65.3714 -65.3714 -65.3714 -34.4787 -34.4787 -34.4786 -34.4786
   -34.2510 -34.2510 -34.2491 -34.2491 -33.8292 -33.8292 -33.8291 -33.8291
   -19.3561 -19.3561 -19.3396 -19.3396  -6.6567  -6.6567  -6.5336  -6.5336
    -6.0403  -6.0403  -5.9191  -5.9191  -5.6776  -5.6776  -5.6218  -5.6218
    -2.9822  -2.9822  -2.9087  -2.9087  -2.6344  -2.6344  -2.5660  -2.5660
    -2.3627  -2.3627  -2.2677  -2.2677   6.5596   6.5596   6.7344   6.7344
     7.4437   7.4437   7.5121   7.5121   7.7832   7.7832   7.8932   7.8932
     7.9657   7.9657   8.1009   8.1009   8.3734   8.3734   8.6044   8.6044
     8.7379   8.7379   8.8186   8.8186   9.3437   9.3437   9.5013   9.5013
     9.6493   9.6493   9.7560   9.7560  10.0067  10.0067  10.1080  10.1080
    14.1614  14.1614  14.2847  14.2847  14.4396  14.4396  14.5368  14.5368
    14.5719  14.5719  14.6553  14.6553  15.0065  15.0065  15.0857  15.0857
    15.3550  15.3550  15.4250  15.4251  15.5363  15.5370  15.5774  15.5797
    15.6281  15.6293

          k = 0.3333 0.0000 0.0000 ( 24860 PWs)   bands (ev):

   -65.3715 -65.3714 -65.3714 -65.3713 -34.4791 -34.4787 -34.4786 -34.4782
   -34.2533 -34.2530 -34.2470 -34.2468 -33.8296 -33.8292 -33.8291 -33.8287
   -19.3997 -19.3537 -19.3363 -19.3008  -6.8122  -6.6948  -6.6221  -6.3581
    -6.1722  -6.0890  -5.9541  -5.7823  -5.6299  -5.6100  -5.5063  -5.4909
    -3.1332  -3.0712  -3.0299  -3.0050  -2.8520  -2.6723  -2.5076  -2.5039
    -2.5005  -2.1715  -2.1358  -2.0034   6.0238   6.3412   6.6192   6.9806
     7.4890   7.5060   7.5201   7.5386   7.5771   7.6341   7.8040   7.8045
     7.9261   8.0360   8.1347   8.1755   8.3158   8.5536   8.6429   8.8168
     8.9038   9.1081   9.1137   9.2564   9.2583   9.3040   9.3195   9.5275
     9.6261   9.7051   9.7695   9.8203  10.0279  10.1004  10.1438  10.1585
    13.8819  13.9321  14.0796  14.2370  14.2752  14.3376  14.3811  14.4190
    14.5724  14.6247  14.6465  14.7928  14.9127  14.9683  15.1132  15.1518
    15.3455  15.4438  15.4585  15.5163  15.5223  15.5402  15.5703  15.5823
    15.6365  15.6465

          k = 0.3333 0.0000 0.1436 ( 24822 PWs)   bands (ev):

   -65.3715 -65.3714 -65.3714 -65.3713 -34.4790 -34.4787 -34.4786 -34.4783
   -34.2527 -34.2524 -34.2476 -34.2474 -33.8296 -33.8292 -33.8290 -33.8287
   -19.3944 -19.3540 -19.3371 -19.3052  -6.7758  -6.6728  -6.6052  -6.4055
    -6.1615  -6.1295  -5.8984  -5.8579  -5.6557  -5.6096  -5.5034  -5.4582
    -3.1384  -3.1036  -3.0688  -3.0100  -2.7574  -2.6795  -2.5199  -2.4890
    -2.4349  -2.1866  -2.1649  -2.0268   6.0935   6.3890   6.5840   6.9441
     7.4560   7.4970   7.5320   7.5546   7.6391   7.7004   7.7945   7.8162
     7.9502   8.0306   8.1704   8.1772   8.3109   8.5002   8.5867   8.7920
     8.8806   8.9132   9.1046   9.1216   9.2170   9.3608   9.4397   9.5775
     9.6019   9.6642   9.7271   9.9444   9.9806  10.1346  10.1419  10.2088
    13.9166  14.0071  14.0861  14.2518  14.2919  14.3657  14.4304  14.5279
    14.5787  14.5828  14.6271  14.7591  14.9157  14.9545  15.0916  15.1618
    15.3414  15.4360  15.4411  15.5067  15.5163  15.5337  15.5890  15.5948
    15.6107  15.6276

          k = 0.3333 0.0000 0.2873 ( 24855 PWs)   bands (ev):

   -65.3715 -65.3714 -65.3714 -65.3714 -34.4789 -34.4787 -34.4786 -34.4784
   -34.2511 -34.2509 -34.2492 -34.2490 -33.8295 -33.8293 -33.8289 -33.8288
   -19.3806 -19.3640 -19.3299 -19.3166  -6.6749  -6.6242  -6.5897  -6.5312
    -6.1315  -6.1239  -5.9669  -5.9316  -5.6170  -5.5909  -5.5042  -5.4675
    -3.1725  -3.1661  -3.0342  -3.0019  -2.6950  -2.6909  -2.5005  -2.4544
    -2.3400  -2.2411  -2.1761  -2.0957   6.2610   6.4285   6.5741   6.7784
     7.4892   7.5172   7.5658   7.5869   7.7339   7.7667   7.7793   7.8318
     8.0000   8.0277   8.2080   8.2529   8.2916   8.3914   8.4911   8.5646
     8.7687   8.9097   8.9739   9.0140   9.1857   9.2956   9.5535   9.6328
     9.6453   9.7078   9.7585   9.8643  10.1039  10.1174  10.1641  10.2363
    14.0035  14.0623  14.2075  14.2849  14.3505  14.3676  14.4238  14.4730
    14.5625  14.6041  14.6749  14.6897  14.9389  14.9435  15.1328  15.2810
    15.3696  15.4127  15.4362  15.4788  15.5099  15.5157  15.5605  15.5918
    15.6195  15.6271

          k = 0.3333 0.1586 0.0000 ( 24823 PWs)   bands (ev):

   -65.3715 -65.3714 -65.3714 -65.3713 -34.4790 -34.4788 -34.4785 -34.4783
   -34.2533 -34.2531 -34.2470 -34.2468 -33.8296 -33.8292 -33.8291 -33.8287
   -19.3962 -19.3546 -19.3356 -19.3030  -6.8723  -6.7648  -6.5751  -6.3573
    -6.1974  -6.0734  -5.9229  -5.7191  -5.6370  -5.6246  -5.5274  -5.4787
    -3.0943  -3.0782  -3.0392  -2.9537  -2.8631  -2.6949  -2.5098  -2.4976
    -2.4601  -2.1732  -2.1576  -1.9760   6.0721   6.3467   6.6745   6.9864
     7.4148   7.4473   7.4517   7.5291   7.5909   7.5942   7.7430   7.7802
     7.8281   8.0291   8.1984   8.2422   8.3606   8.5758   8.6636   8.7852
     8.9498   8.9633   9.0054   9.2252   9.3101   9.3374   9.4019   9.5195
     9.5324   9.7070   9.7662   9.8305   9.9918  10.0614  10.0851  10.2191
    13.7893  14.0742  14.1058  14.1628  14.2825  14.2849  14.3974  14.4337
    14.5812  14.6176  14.6899  14.7987  14.9445  14.9653  15.1248  15.1686
    15.3645  15.4123  15.4678  15.4997  15.5239  15.5362  15.5616  15.5805
    15.6193  15.6232

          k = 0.3333 0.1586 0.1436 ( 24835 PWs)   bands (ev):

   -65.3715 -65.3714 -65.3714 -65.3713 -34.4790 -34.4787 -34.4786 -34.4783
   -34.2527 -34.2525 -34.2476 -34.2474 -33.8295 -33.8292 -33.8291 -33.8287
   -19.3909 -19.3528 -19.3384 -19.3076  -6.8346  -6.7376  -6.5696  -6.4201
    -6.1916  -6.0887  -5.9041  -5.7734  -5.6492  -5.5881  -5.5368  -5.4674
    -3.1091  -3.0895  -3.0333  -3.0148  -2.7811  -2.6867  -2.5035  -2.4748
    -2.4189  -2.2289  -2.1491  -2.0033   6.1421   6.3967   6.6362   6.9608
     7.3663   7.4657   7.5101   7.5409   7.5803   7.6717   7.7480   7.8145
     7.8781   7.9743   8.1507   8.2641   8.4341   8.4962   8.6089   8.7777
     8.8754   8.9086   8.9377   9.1612   9.2030   9.3495   9.4735   9.5162
     9.5901   9.6494   9.7955   9.9033   9.9898  10.0266  10.1545  10.2106
    13.8669  14.1029  14.1279  14.2039  14.3005  14.3254  14.4505  14.4827
    14.5766  14.6122  14.6409  14.7618  14.9390  14.9704  15.0991  15.1717
    15.3598  15.4100  15.4525  15.4942  15.5144  15.5448  15.5538  15.5912
    15.6021  15.6206

          k = 0.3333 0.1586 0.2873 ( 24821 PWs)   bands (ev):

   -65.3715 -65.3714 -65.3714 -65.3714 -34.4789 -34.4787 -34.4786 -34.4784
   -34.2511 -34.2509 -34.2492 -34.2490 -33.8294 -33.8293 -33.8290 -33.8288
   -19.3770 -19.3605 -19.3330 -19.3193  -6.7294  -6.6668  -6.6007  -6.5613
    -6.1421  -6.0977  -5.9229  -5.8724  -5.5959  -5.5514  -5.5416  -5.4985
    -3.1402  -3.1377  -3.0117  -2.9955  -2.7379  -2.6964  -2.4681  -2.4175
    -2.3561  -2.3009  -2.1456  -2.0763   6.3108   6.4733   6.5879   6.7880
     7.4564   7.5143   7.5228   7.5715   7.6600   7.7333   7.7767   7.8147
     7.9167   7.9995   8.0614   8.2887   8.3787   8.4591   8.5538   8.6465
     8.7702   8.8377   8.9068   8.9385   9.1853   9.3329   9.5195   9.5692
     9.6647   9.7348   9.7779   9.8604   9.9853  10.0475  10.1879  10.2449
    14.0360  14.1240  14.1834  14.2805  14.3281  14.3877  14.4722  14.5146
    14.5387  14.5577  14.6149  14.6820  14.9335  14.9553  15.2099  15.2552
    15.3512  15.3917  15.4553  15.4991  15.5076  15.5281  15.5345  15.5595
    15.6155  15.6331

          k = 0.3333 0.3171 0.0000 ( 24809 PWs)   bands (ev):

   -65.3715 -65.3714 -65.3714 -65.3713 -34.4790 -34.4788 -34.4785 -34.4783
   -34.2532 -34.2531 -34.2470 -34.2469 -33.8295 -33.8292 -33.8291 -33.8288
   -19.3866 -19.3614 -19.3296 -19.3096  -6.9547  -6.8902  -6.4419  -6.3790
    -6.2847  -6.0906  -5.7866  -5.7396  -5.6091  -5.5844  -5.5630  -5.4813
    -3.0624  -3.0443  -2.9942  -2.8987  -2.8714  -2.7870  -2.5053  -2.4392
    -2.3909  -2.2765  -2.0895  -1.9603   6.1858   6.3435   6.8110   7.0063
     7.1744   7.2859   7.3754   7.4804   7.5642   7.6038   7.7055   7.7238
     7.8576   8.0783   8.1930   8.3068   8.3605   8.5575   8.5586   8.7417
     8.9286   8.9545   8.9790   9.1339   9.2845   9.2958   9.3341   9.4656
     9.6034   9.7138   9.7610   9.9263   9.9893  10.0193  10.0659  10.1518
    13.7480  13.9544  14.1101  14.2561  14.2890  14.3691  14.4049  14.4701
    14.5678  14.6351  14.7572  14.7780  14.9302  15.0197  15.0922  15.1720
    15.2939  15.4137  15.4681  15.4903  15.4949  15.5091  15.5575  15.5808
    15.6186  15.6452

          k = 0.3333 0.3171 0.1436 ( 24820 PWs)   bands (ev):

   -65.3715 -65.3714 -65.3714 -65.3713 -34.4789 -34.4788 -34.4785 -34.4784
   -34.2526 -34.2525 -34.2476 -34.2475 -33.8294 -33.8292 -33.8291 -33.8288
   -19.3813 -19.3568 -19.3348 -19.3145  -6.9154  -6.8554  -6.4999  -6.4524
    -6.2433  -6.0609  -5.8092  -5.7248  -5.6269  -5.5930  -5.5506  -5.4853
    -3.0751  -3.0423  -2.9992  -2.9282  -2.8527  -2.7232  -2.5210  -2.4178
    -2.3575  -2.3069  -2.1036  -1.9895   6.2561   6.4006   6.7600   6.9766
     7.1849   7.3392   7.4281   7.5097   7.5596   7.6532   7.6748   7.7768
     7.8990   8.0238   8.1317   8.2605   8.3236   8.5477   8.5876   8.7178
     8.7624   8.9580   9.0408   9.0997   9.1874   9.2456   9.4049   9.5154
     9.6217   9.6470   9.7877   9.8624   9.9638  10.0276  10.1369  10.1663
    13.8381  14.0195  14.1681  14.2814  14.3159  14.3841  14.4620  14.4790
    14.5877  14.6258  14.7053  14.7263  14.9273  14.9916  15.0435  15.1634
    15.3088  15.4197  15.4620  15.4983  15.5028  15.5199  15.5671  15.5835
    15.6140  15.6287

          k = 0.3333 0.3171 0.2873 ( 24818 PWs)   bands (ev):

   -65.3714 -65.3714 -65.3714 -65.3714 -34.4788 -34.4787 -34.4786 -34.4785
   -34.2511 -34.2509 -34.2491 -34.2490 -33.8293 -33.8292 -33.8291 -33.8289
   -19.3675 -19.3517 -19.3413 -19.3271  -6.8036  -6.7567  -6.6430  -6.6110
    -6.1158  -6.0215  -5.8448  -5.8137  -5.6157  -5.5734  -5.5398  -5.4983
    -3.0851  -3.0715  -2.9777  -2.9281  -2.7959  -2.7122  -2.5183  -2.4539
    -2.3069  -2.2679  -2.1282  -2.0662   6.4269   6.5456   6.6364   6.7827
     7.3826   7.4549   7.5139   7.5421   7.5931   7.6605   7.7348   7.8197
     7.8484   7.9225   7.9786   8.1065   8.3529   8.5176   8.6329   8.7277
     8.8077   8.8564   8.9057   8.9427   9.1304   9.3202   9.4242   9.5336
     9.5515   9.6646   9.7627   9.8549   9.9621   9.9929  10.1993  10.2283
    14.0476  14.1572  14.2179  14.2408  14.3848  14.4461  14.4875  14.5162
    14.5404  14.6131  14.6259  14.6506  14.9314  14.9563  15.0307  15.1268
    15.3717  15.4202  15.4603  15.4759  15.5388  15.5490  15.5614  15.5783
    15.6252  15.6434

          k = 0.3333-0.4757 0.0000 ( 24852 PWs)   bands (ev):

   -65.3714 -65.3714 -65.3713 -65.3713 -34.4789 -34.4789 -34.4784 -34.4784
   -34.2532 -34.2532 -34.2469 -34.2469 -33.8294 -33.8294 -33.8289 -33.8289
   -19.3737 -19.3737 -19.3194 -19.3194  -6.9665  -6.9665  -6.3625  -6.3625
    -6.2518  -6.2518  -5.6858  -5.6858  -5.6405  -5.6405  -5.5095  -5.5095
    -3.0295  -3.0295  -2.8982  -2.8982  -2.8908  -2.8908  -2.4128  -2.4128
    -2.3783  -2.3783  -2.0055  -2.0055   6.2930   6.2930   6.9710   6.9710
     7.1060   7.1060   7.3857   7.3857   7.6191   7.6191   7.6362   7.6362
     8.1125   8.1125   8.2029   8.2029   8.3968   8.3968   8.6922   8.6922
     8.7355   8.7355   9.1725   9.1725   9.2622   9.2622   9.3433   9.3433
     9.7227   9.7227   9.8869   9.8869   9.9505   9.9505  10.1021  10.1021
    13.8059  13.8059  14.1649  14.1649  14.3835  14.3835  14.5011  14.5011
    14.5875  14.5875  14.7736  14.7736  14.9730  14.9731  15.0541  15.0542
    15.4091  15.4093  15.4641  15.4644  15.4960  15.4961  15.5593  15.5598
    15.6515  15.6590

          k = 0.3333-0.4757 0.1436 ( 24830 PWs)   bands (ev):

   -65.3714 -65.3714 -65.3714 -65.3714 -34.4789 -34.4789 -34.4784 -34.4784
   -34.2526 -34.2526 -34.2475 -34.2475 -33.8293 -33.8293 -33.8290 -33.8290
   -19.3685 -19.3685 -19.3246 -19.3246  -6.9277  -6.9277  -6.4726  -6.4726
    -6.1657  -6.1657  -5.7221  -5.7221  -5.6149  -5.6149  -5.5196  -5.5196
    -3.0296  -3.0296  -2.9493  -2.9493  -2.8093  -2.8093  -2.4678  -2.4678
    -2.3255  -2.3255  -2.0326  -2.0326   6.3598   6.3598   6.8948   6.8948
     7.1800   7.1800   7.4453   7.4453   7.5835   7.5835   7.7083   7.7083
     8.0690   8.0690   8.1644   8.1644   8.3458   8.3458   8.5797   8.5797
     8.8601   8.8601   9.1083   9.1083   9.2437   9.2437   9.3909   9.3909
     9.6691   9.6691   9.8210   9.8210   9.9694   9.9694  10.1519  10.1519
    13.8901  13.8901  14.2233  14.2233  14.4013  14.4013  14.5363  14.5364
    14.5831  14.5831  14.7151  14.7152  14.9663  14.9663  15.0077  15.0077
    15.4036  15.4037  15.4677  15.4679  15.5334  15.5338  15.5624  15.5630
    15.6370  15.6402

          k = 0.3333-0.4757 0.2873 ( 24830 PWs)   bands (ev):

   -65.3714 -65.3714 -65.3714 -65.3714 -34.4787 -34.4787 -34.4786 -34.4786
   -34.2510 -34.2510 -34.2491 -34.2491 -33.8292 -33.8292 -33.8291 -33.8291
   -19.3550 -19.3550 -19.3382 -19.3382  -6.8166  -6.8166  -6.6516  -6.6516
    -6.0155  -6.0155  -5.8473  -5.8473  -5.5662  -5.5662  -5.5362  -5.5362
    -3.0131  -3.0131  -2.9825  -2.9825  -2.7054  -2.7054  -2.5813  -2.5813
    -2.2199  -2.2199  -2.1097  -2.1097   6.5272   6.5272   6.7246   6.7246
     7.3925   7.3925   7.5050   7.5050   7.6036   7.6036   7.7970   7.7970
     7.8552   7.8552   7.9435   7.9435   8.4790   8.4790   8.5956   8.5956
     8.9062   8.9062   8.9648   8.9648   9.1860   9.1860   9.4303   9.4303
     9.5998   9.5998   9.7142   9.7142  10.0839  10.0839  10.1668  10.1668
    14.0839  14.0839  14.2348  14.2348  14.4640  14.4640  14.5494  14.5494
    14.5866  14.5866  14.6317  14.6317  14.9340  14.9340  14.9598  14.9598
    15.4215  15.4216  15.4483  15.4484  15.5705  15.5724  15.5810  15.5822
    15.6380  15.6460

          k =-0.5000 0.0000 0.0000 ( 24876 PWs)   bands (ev):

   -65.3715 -65.3715 -65.3714 -65.3714 -34.4789 -34.4789 -34.4784 -34.4784
   -34.2532 -34.2532 -34.2469 -34.2469 -33.8293 -33.8293 -33.8289 -33.8289
   -19.3749 -19.3749 -19.3193 -19.3193  -6.8174  -6.8174  -6.3739  -6.3739
    -6.2763  -6.2763  -5.8272  -5.8272  -5.6382  -5.6382  -5.4918  -5.4918
    -3.0804  -3.0804  -2.9869  -2.9869  -2.7812  -2.7812  -2.4242  -2.4242
    -2.2968  -2.2968  -2.0935  -2.0935   6.1709   6.1709   6.7552   6.7552
     7.3714   7.3714   7.5439   7.5439   7.6588   7.6588   7.7330   7.7330
     8.1665   8.1665   8.2191   8.2191   8.2379   8.2379   8.7115   8.7115
     8.9568   8.9568   9.1020   9.1020   9.3011   9.3011   9.5031   9.5031
     9.6599   9.6599   9.7383   9.7383   9.9971   9.9971  10.1386  10.1386
    14.0903  14.0903  14.1633  14.1633  14.2751  14.2751  14.4579  14.4579
    14.4722  14.4722  14.7519  14.7519  15.1064  15.1064  15.2394  15.2396
    15.3214  15.3215  15.4698  15.4702  15.5163  15.5166  15.5871  15.5896
    15.6194  15.6207

          k =-0.5000 0.0000 0.1436 ( 24812 PWs)   bands (ev):

   -65.3714 -65.3714 -65.3714 -65.3714 -34.4789 -34.4789 -34.4784 -34.4784
   -34.2526 -34.2526 -34.2475 -34.2475 -33.8293 -33.8293 -33.8290 -33.8290
   -19.3703 -19.3703 -19.3240 -19.3240  -6.7835  -6.7835  -6.4389  -6.4389
    -6.2345  -6.2345  -5.7960  -5.7960  -5.7049  -5.7049  -5.4717  -5.4717
    -3.1234  -3.1234  -2.9309  -2.9309  -2.8161  -2.8161  -2.3938  -2.3938
    -2.2792  -2.2792  -2.1156  -2.1156   6.2199   6.2199   6.7109   6.7109
     7.4357   7.4357   7.5619   7.5619   7.6066   7.6066   7.7594   7.7594
     8.1608   8.1608   8.2180   8.2180   8.2839   8.2839   8.6979   8.6979
     8.8117   8.8117   9.0345   9.0345   9.2648   9.2648   9.5620   9.5620
     9.6145   9.6145   9.8092   9.8092  10.0825  10.0825  10.1273  10.1273
    14.1057  14.1057  14.2220  14.2220  14.2811  14.2811  14.4493  14.4493
    14.5587  14.5587  14.7074  14.7074  15.0946  15.0946  15.2257  15.2260
    15.3076  15.3078  15.4736  15.4739  15.5240  15.5247  15.5859  15.5866
    15.6125  15.6131

          k =-0.5000 0.0000 0.2873 ( 24842 PWs)   bands (ev):

   -65.3714 -65.3714 -65.3714 -65.3714 -34.4787 -34.4787 -34.4786 -34.4786
   -34.2510 -34.2510 -34.2491 -34.2491 -33.8292 -33.8292 -33.8291 -33.8291
   -19.3596 -19.3596 -19.3349 -19.3349  -6.6906  -6.6906  -6.5607  -6.5607
    -6.1835  -6.1835  -5.7923  -5.7923  -5.7267  -5.7267  -5.4853  -5.4853
    -3.1310  -3.1310  -2.9196  -2.9196  -2.8542  -2.8542  -2.3223  -2.3223
    -2.2579  -2.2579  -2.1657  -2.1657   6.3424   6.3424   6.5771   6.5771
     7.5524   7.5524   7.5855   7.5855   7.6815   7.6815   7.7675   7.7675
     8.0912   8.0912   8.1804   8.1804   8.3364   8.3364   8.5623   8.5623
     8.7050   8.7050   8.8944   8.8944   9.2697   9.2697   9.5787   9.5787
     9.6989   9.6989   9.8821   9.8821  10.0398  10.0398  10.2141  10.2141
    14.1565  14.1565  14.2459  14.2459  14.3611  14.3611  14.4955  14.4955
    14.5230  14.5230  14.6446  14.6446  15.1756  15.1757  15.2699  15.2699
    15.2878  15.2881  15.4801  15.4805  15.5245  15.5248  15.5788  15.5791
    15.6036  15.6042

          k =-0.5000 0.1586 0.0000 ( 24844 PWs)   bands (ev):

   -65.3714 -65.3714 -65.3713 -65.3713 -34.4789 -34.4789 -34.4784 -34.4784
   -34.2532 -34.2532 -34.2469 -34.2469 -33.8293 -33.8293 -33.8289 -33.8289
   -19.3745 -19.3745 -19.3191 -19.3191  -6.8848  -6.8848  -6.3371  -6.3371
    -6.3108  -6.3108  -5.7643  -5.7643  -5.5758  -5.5758  -5.5523  -5.5523
    -3.0320  -3.0320  -2.9941  -2.9941  -2.8375  -2.8375  -2.4006  -2.4006
    -2.3209  -2.3209  -2.0472  -2.0472   6.1939   6.1939   6.7989   6.7989
     7.2718   7.2718   7.4968   7.4968   7.6434   7.6434   7.6818   7.6818
     8.1116   8.1116   8.2516   8.2516   8.3235   8.3235   8.6853   8.6853
     8.9746   8.9746   9.0444   9.0444   9.3619   9.3619   9.5057   9.5057
     9.5852   9.5852   9.7607   9.7607  10.0014  10.0014  10.1235  10.1235
    13.9546  13.9546  14.2600  14.2600  14.2885  14.2885  14.4627  14.4627
    14.4874  14.4874  14.7530  14.7530  15.0722  15.0723  15.1741  15.1742
    15.3120  15.3120  15.4958  15.4959  15.5051  15.5056  15.5791  15.5795
    15.6150  15.6159

          k =-0.5000 0.1586 0.1436 ( 24818 PWs)   bands (ev):

   -65.3714 -65.3714 -65.3714 -65.3714 -34.4789 -34.4789 -34.4784 -34.4784
   -34.2526 -34.2526 -34.2475 -34.2475 -33.8293 -33.8293 -33.8290 -33.8290
   -19.3698 -19.3698 -19.3240 -19.3240  -6.8485  -6.8485  -6.4465  -6.4465
    -6.2299  -6.2299  -5.7545  -5.7545  -5.6292  -5.6292  -5.5205  -5.5205
    -3.0801  -3.0801  -2.9432  -2.9432  -2.8518  -2.8518  -2.3773  -2.3773
    -2.3120  -2.3120  -2.0659  -2.0659   6.2465   6.2465   6.7517   6.7517
     7.3416   7.3416   7.5186   7.5186   7.5993   7.5993   7.7181   7.7181
     8.0776   8.0776   8.2723   8.2723   8.3703   8.3703   8.6614   8.6614
     8.7678   8.7678   9.0507   9.0507   9.3142   9.3142   9.5192   9.5192
     9.6052   9.6052   9.8183   9.8183  10.0258  10.0258  10.1420  10.1420
    14.0126  14.0126  14.2856  14.2856  14.3130  14.3130  14.4720  14.4721
    14.5416  14.5416  14.7019  14.7019  15.0336  15.0336  15.1608  15.1608
    15.3206  15.3208  15.4964  15.4968  15.5207  15.5217  15.5770  15.5780
    15.6114  15.6137

          k =-0.5000 0.1586 0.2873 ( 24840 PWs)   bands (ev):

   -65.3714 -65.3714 -65.3714 -65.3714 -34.4787 -34.4787 -34.4786 -34.4786
   -34.2510 -34.2510 -34.2491 -34.2491 -33.8292 -33.8292 -33.8291 -33.8291
   -19.3585 -19.3585 -19.3354 -19.3354  -6.7465  -6.7465  -6.5985  -6.5985
    -6.1592  -6.1592  -5.7590  -5.7590  -5.6496  -5.6496  -5.5244  -5.5244
    -3.0837  -3.0837  -2.9524  -2.9524  -2.8596  -2.8596  -2.3426  -2.3426
    -2.2806  -2.2806  -2.1066  -2.1066   6.3778   6.3778   6.6119   6.6119
     7.4987   7.4987   7.5665   7.5665   7.6133   7.6133   7.7778   7.7778
     7.9760   7.9760   8.1555   8.1555   8.4457   8.4457   8.5967   8.5967
     8.7094   8.7094   8.8635   8.8635   9.2694   9.2694   9.5761   9.5761
     9.6503   9.6503   9.9145   9.9145   9.9584   9.9584  10.2182  10.2182
    14.1436  14.1436  14.2559  14.2559  14.3835  14.3836  14.5097  14.5097
    14.5428  14.5429  14.6387  14.6387  15.0353  15.0354  15.1246  15.1247
    15.3678  15.3678  15.4960  15.4961  15.5383  15.5384  15.5692  15.5696
    15.6255  15.6261

          k =-0.5000 0.3171 0.0000 ( 24816 PWs)   bands (ev):

   -65.3714 -65.3714 -65.3713 -65.3713 -34.4789 -34.4789 -34.4784 -34.4784
   -34.2532 -34.2532 -34.2469 -34.2469 -33.8293 -33.8293 -33.8289 -33.8289
   -19.3737 -19.3737 -19.3187 -19.3187  -6.9935  -6.9935  -6.3852  -6.3852
    -6.2431  -6.2431  -5.6914  -5.6914  -5.6199  -5.6199  -5.4888  -5.4888
    -3.0115  -3.0115  -2.9377  -2.9377  -2.9266  -2.9266  -2.3797  -2.3797
    -2.3420  -2.3420  -1.9767  -1.9767   6.2412   6.2412   6.8896   6.8896
     7.1244   7.1244   7.4250   7.4250   7.5510   7.5510   7.5964   7.5964
     8.0722   8.0722   8.3442   8.3442   8.3933   8.3933   8.6304   8.6304
     8.7789   8.7789   9.1899   9.1899   9.3284   9.3284   9.4512   9.4512
     9.6398   9.6398   9.7902   9.7902   9.9699   9.9699  10.1185  10.1185
    13.8154  13.8154  14.1659  14.1659  14.3809  14.3809  14.4926  14.4927
    14.5431  14.5431  14.7493  14.7493  14.9926  14.9926  15.0802  15.0802
    15.3967  15.3968  15.4765  15.4769  15.5176  15.5178  15.5746  15.5749
    15.6174  15.6188

          k =-0.5000 0.3171 0.1436 ( 24822 PWs)   bands (ev):

   -65.3714 -65.3714 -65.3714 -65.3714 -34.4789 -34.4789 -34.4785 -34.4785
   -34.2526 -34.2526 -34.2475 -34.2475 -33.8293 -33.8293 -33.8290 -33.8290
   -19.3687 -19.3687 -19.3238 -19.3238  -6.9539  -6.9539  -6.4883  -6.4883
    -6.1781  -6.1781  -5.6902  -5.6902  -5.6101  -5.6101  -5.5050  -5.5050
    -3.0197  -3.0197  -2.9692  -2.9692  -2.8778  -2.8778  -2.4178  -2.4178
    -2.2934  -2.2934  -1.9975  -1.9975   6.3035   6.3035   6.8345   6.8345
     7.2002   7.2002   7.4575   7.4575   7.5247   7.5247   7.6556   7.6556
     8.0486   8.0486   8.2401   8.2401   8.4492   8.4492   8.5778   8.5778
     8.7672   8.7672   9.0766   9.0766   9.3513   9.3513   9.4743   9.4743
     9.5849   9.5849   9.8208   9.8208   9.9740   9.9740  10.1554  10.1554
    13.8972  13.8972  14.2253  14.2253  14.3999  14.3999  14.5154  14.5154
    14.5461  14.5461  14.6908  14.6909  14.9872  14.9873  15.0282  15.0283
    15.3996  15.3997  15.4868  15.4871  15.5406  15.5412  15.5811  15.5820
    15.6068  15.6085

          k =-0.5000 0.3171 0.2873 ( 24848 PWs)   bands (ev):

   -65.3714 -65.3714 -65.3714 -65.3714 -34.4787 -34.4787 -34.4786 -34.4786
   -34.2510 -34.2510 -34.2491 -34.2491 -33.8292 -33.8292 -33.8291 -33.8291
   -19.3559 -19.3559 -19.3367 -19.3367  -6.8401  -6.8401  -6.6705  -6.6705
    -6.0764  -6.0764  -5.7534  -5.7534  -5.5627  -5.5627  -5.5289  -5.5289
    -3.0162  -3.0162  -2.9903  -2.9903  -2.8375  -2.8375  -2.4773  -2.4773
    -2.2036  -2.2036  -2.0517  -2.0517   6.4591   6.4591   6.6807   6.6807
     7.4076   7.4076   7.4836   7.4836   7.5539   7.5539   7.7592   7.7592
     7.9122   7.9122   7.9917   7.9917   8.5106   8.5106   8.6210   8.6210
     8.7847   8.7847   8.8927   8.8927   9.2910   9.2910   9.4906   9.4906
     9.5862   9.5862   9.7530   9.7530  10.0406  10.0406  10.2215  10.2215
    14.0851  14.0851  14.2353  14.2353  14.4609  14.4609  14.5209  14.5209
    14.5613  14.5613  14.6099  14.6100  14.9527  14.9527  14.9705  14.9705
    15.4194  15.4194  15.4853  15.4856  15.5600  15.5605  15.5829  15.5834
    15.6296  15.6322

          k =-0.5000-0.4757 0.0000 ( 24820 PWs)   bands (ev):

   -65.3714 -65.3714 -65.3713 -65.3713 -34.4789 -34.4789 -34.4784 -34.4784
   -34.2532 -34.2532 -34.2469 -34.2469 -33.8294 -33.8294 -33.8289 -33.8289
   -19.3733 -19.3733 -19.3185 -19.3185  -7.0396  -7.0396  -6.4203  -6.4203
    -6.1745  -6.1745  -5.7816  -5.7816  -5.5362  -5.5362  -5.4661  -5.4661
    -3.0171  -3.0171  -2.9880  -2.9880  -2.8660  -2.8660  -2.4181  -2.4181
    -2.3084  -2.3084  -1.9492  -1.9492   6.2656   6.2656   6.9137   6.9137
     7.1083   7.1083   7.3952   7.3952   7.4562   7.4562   7.5694   7.5694
     8.0446   8.0446   8.4562   8.4562   8.4668   8.4668   8.5228   8.5228
     8.6781   8.6781   9.2536   9.2536   9.3105   9.3105   9.3384   9.3384
     9.7496   9.7496   9.8051   9.8051   9.9978   9.9978  10.0701  10.0701
    13.7588  13.7588  14.1065  14.1065  14.3863  14.3863  14.5114  14.5114
    14.5787  14.5787  14.7505  14.7506  14.9459  14.9460  15.0976  15.0976
    15.4525  15.4526  15.4609  15.4609  15.4773  15.4773  15.5908  15.5911
    15.6152  15.6154

          k =-0.5000-0.4757 0.1436 ( 24828 PWs)   bands (ev):

   -65.3714 -65.3714 -65.3713 -65.3713 -34.4789 -34.4789 -34.4785 -34.4785
   -34.2526 -34.2526 -34.2475 -34.2475 -33.8293 -33.8293 -33.8290 -33.8290
   -19.3681 -19.3681 -19.3238 -19.3238  -6.9987  -6.9987  -6.5154  -6.5154
    -6.1243  -6.1243  -5.7575  -5.7575  -5.5567  -5.5567  -5.4695  -5.4695
    -3.0163  -3.0163  -2.9940  -2.9940  -2.8362  -2.8362  -2.4704  -2.4704
    -2.2594  -2.2594  -1.9728  -1.9728   6.3347   6.3347   6.8704   6.8704
     7.1557   7.1557   7.4462   7.4462   7.4539   7.4539   7.6246   7.6246
     8.0476   8.0476   8.1892   8.1892   8.4844   8.4844   8.5894   8.5894
     8.7445   8.7445   9.0661   9.0661   9.3245   9.3245   9.4183   9.4183
     9.6996   9.6996   9.7645   9.7645   9.9957   9.9957  10.1433  10.1433
    13.8490  13.8490  14.1723  14.1723  14.4011  14.4011  14.5348  14.5348
    14.5735  14.5735  14.6913  14.6913  14.9445  14.9446  15.0422  15.0423
    15.4334  15.4334  15.4746  15.4751  15.5222  15.5224  15.5980  15.6002
    15.6086  15.6104

          k =-0.5000-0.4757 0.2873 ( 24852 PWs)   bands (ev):

   -65.3714 -65.3714 -65.3714 -65.3714 -34.4787 -34.4787 -34.4786 -34.4786
   -34.2510 -34.2510 -34.2491 -34.2491 -33.8292 -33.8292 -33.8291 -33.8291
   -19.3545 -19.3545 -19.3376 -19.3376  -6.8807  -6.8807  -6.7042  -6.7042
    -5.9919  -5.9919  -5.8327  -5.8327  -5.5314  -5.5314  -5.4876  -5.4876
    -3.0132  -3.0132  -3.0056  -3.0056  -2.7405  -2.7405  -2.5991  -2.5991
    -2.1508  -2.1508  -2.0435  -2.0435   6.5086   6.5086   6.7119   6.7119
     7.3643   7.3643   7.4602   7.4602   7.5243   7.5243   7.7151   7.7151
     7.8527   7.8527   7.9661   7.9661   8.5301   8.5301   8.6896   8.6896
     8.7255   8.7255   8.9359   8.9359   9.2778   9.2778   9.5201   9.5201
     9.5612   9.5612   9.6157   9.6157  10.1279  10.1279  10.1922  10.1922
    14.0538  14.0538  14.2051  14.2051  14.4503  14.4503  14.5251  14.5251
    14.5787  14.5787  14.6135  14.6135  14.9388  14.9389  14.9533  14.9533
    15.4450  15.4450  15.4617  15.4618  15.5719  15.5731  15.5911  15.5923
    15.6230  15.6244

     the Fermi energy is    12.0912 ev

!    total energy              =   -3179.58181460 Ry
     estimated scf accuracy    <          5.8E-09 Ry
     smearing contrib. (-TS)   =      -0.00019094 Ry
     internal energy E=F+TS    =   -3179.58162366 Ry

     The total energy is F=E-TS. E is the sum of the following terms:
     one-electron contribution =    -614.95068726 Ry
     hartree contribution      =     417.74539728 Ry
     xc contribution           =    -488.26260595 Ry
     ewald contribution        =   -1045.55126698 Ry
     Hubbard energy            =       0.29890796 Ry
     one-center paw contrib.   =   -1448.86136871 Ry

     total magnetization       =    16.00 Bohr mag/cell
     absolute magnetization    =    16.83 Bohr mag/cell

     convergence has been achieved in  14 iterations

     Writing all to output data dir out/LaMnO3.save/ :
     XML data file, charge density, pseudopotentials, collected wavefunctions

     init_run     :     11.35s CPU     12.60s WALL (       1 calls)
     electrons    :    238.20s CPU    266.84s WALL (       1 calls)

     Called by init_run:
     wfcinit      :      3.77s CPU      3.86s WALL (       1 calls)
     potinit      :      4.57s CPU      5.35s WALL (       1 calls)
     hinit0       :      1.40s CPU      1.47s WALL (       1 calls)

     Called by electrons:
     c_bands      :    124.40s CPU    135.41s WALL (      14 calls)
     sum_band     :     39.70s CPU     47.11s WALL (      14 calls)
     v_of_rho     :     41.37s CPU     44.94s WALL (      15 calls)
     newd         :     10.20s CPU     12.36s WALL (      15 calls)
     PAW_pot      :     10.35s CPU     11.37s WALL (      15 calls)
     mix_rho      :      1.58s CPU      1.67s WALL (      14 calls)

     Called by c_bands:
     init_us_2    :      5.03s CPU      5.05s WALL (      60 calls)
     cegterg      :     89.85s CPU     91.47s WALL (      28 calls)

     Called by *egterg:
     cdiaghg      :      3.98s CPU      3.99s WALL (     254 calls)
     h_psi        :     50.46s CPU     51.60s WALL (     256 calls)
     s_psi        :      9.39s CPU      9.41s WALL (     258 calls)
     g_psi        :      0.49s CPU      0.49s WALL (     226 calls)

     Called by h_psi:
     h_psi:calbec :      8.55s CPU      8.60s WALL (     256 calls)
     vloc_psi     :     29.35s CPU     30.21s WALL (     256 calls)
                                        0.00s GPU  (     256 calls)
     add_vuspsi   :      8.58s CPU      8.59s WALL (     256 calls)
     vhpsi        :      2.90s CPU      2.93s WALL (     256 calls)

     General routines
     calbec       :     12.12s CPU     12.20s WALL (     570 calls)
     fft          :     27.57s CPU     30.97s WALL (     369 calls)
     ffts         :      0.62s CPU      0.72s WALL (      58 calls)
     fftw         :     28.14s CPU     29.03s WALL (   21518 calls)
     interpolate  :      3.48s CPU      3.76s WALL (      30 calls)

     Parallel routines

     Hubbard U routines
     new_ns       :      1.18s CPU      1.28s WALL (      14 calls)
     vhpsi        :      2.90s CPU      2.93s WALL (     256 calls)

     PWSCF        :   4m10.72s CPU   4m50.20s WALL


   This run was terminated on:  14:19: 2  16Jun2026            

=------------------------------------------------------------------------------=
   JOB DONE.
=------------------------------------------------------------------------------=
